##TITLE=D01 PAR 10 CAF 6 ASA 12
##JCAMP-DX=4.24
##DATA TYPE=UV/VIS SPECTRUM
##ORIGIN=Spectro demo data (simulated)
##OWNER=public domain
##XUNITS=NANOMETERS
##YUNITS=ABSORBANCE
##XFACTOR=1
##YFACTOR=1
##FIRSTX=200
##LASTX=400
##NPOINTS=201
##XYPOINTS=(XY..XY)
200, 2.4034
201, 2.4715
202, 2.5311
203, 2.5273
204, 2.4866
205, 2.4422
206, 2.3207
207, 2.2024
208, 2.0676
209, 1.9128
210, 1.7566
211, 1.6102
212, 1.4594
213, 1.3335
214, 1.2197
215, 1.1147
216, 1.0376
217, 0.9768
218, 0.9242
219, 0.8969
220, 0.8846
221, 0.8868
222, 0.8935
223, 0.9082
224, 0.9343
225, 0.9627
226, 0.9843
227, 1.0096
228, 1.0356
229, 1.0639
230, 1.0806
231, 1.0886
232, 1.0953
233, 1.0999
234, 1.0975
235, 1.0878
236, 1.0785
237, 1.0627
238, 1.0434
239, 1.0143
240, 0.9936
241, 0.9694
242, 0.9388
243, 0.9067
244, 0.8803
245, 0.8491
246, 0.8153
247, 0.7906
248, 0.7576
249, 0.7316
250, 0.7037
251, 0.6784
252, 0.6515
253, 0.6277
254, 0.6024
255, 0.5840
256, 0.5670
257, 0.5460
258, 0.5303
259, 0.5167
260, 0.5064
261, 0.4984
262, 0.4852
263, 0.4795
264, 0.4714
265, 0.4711
266, 0.4665
267, 0.4636
268, 0.4631
269, 0.4591
270, 0.4590
271, 0.4557
272, 0.4525
273, 0.4478
274, 0.4433
275, 0.4392
276, 0.4281
277, 0.4173
278, 0.4041
279, 0.3909
280, 0.3764
281, 0.3565
282, 0.3380
283, 0.3183
284, 0.2981
285, 0.2747
286, 0.2558
287, 0.2331
288, 0.2135
289, 0.1926
290, 0.1732
291, 0.1536
292, 0.1362
293, 0.1194
294, 0.1059
295, 0.0908
296, 0.0780
297, 0.0674
298, 0.0566
299, 0.0480
300, 0.0401
301, 0.0339
302, 0.0280
303, 0.0224
304, 0.0200
305, 0.0146
306, 0.0125
307, 0.0096
308, 0.0086
309, 0.0062
310, 0.0044
311, 0.0041
312, 0.0030
313, 0.0032
314, 0.0028
315, 0.0016
316, 0.0018
317, 0.0011
318, 0.0009
319, 0.0011
320, 0.0003
321, -0.0000
322, 0.0014
323, 0.0011
324, 0.0008
325, 0.0007
326, 0.0004
327, 0.0003
328, 0.0004
329, -0.0002
330, 0.0006
331, 0.0008
332, 0.0011
333, 0.0010
334, 0.0007
335, 0.0005
336, 0.0010
337, 0.0006
338, 0.0001
339, 0.0005
340, 0.0007
341, 0.0009
342, -0.0002
343, 0.0004
344, 0.0007
345, 0.0012
346, 0.0005
347, 0.0006
348, 0.0005
349, 0.0002
350, 0.0010
351, 0.0006
352, 0.0008
353, 0.0010
354, 0.0008
355, 0.0002
356, 0.0004
357, -0.0001
358, 0.0007
359, 0.0003
360, 0.0003
361, 0.0001
362, 0.0008
363, 0.0008
364, 0.0007
365, 0.0001
366, 0.0010
367, 0.0006
368, 0.0006
369, 0.0009
370, -0.0001
371, 0.0007
372, 0.0007
373, 0.0008
374, 0.0006
375, 0.0008
376, 0.0008
377, 0.0002
378, 0.0006
379, 0.0008
380, 0.0006
381, -0.0002
382, 0.0013
383, 0.0005
384, 0.0010
385, 0.0007
386, -0.0003
387, 0.0003
388, 0.0004
389, -0.0001
390, 0.0004
391, 0.0003
392, -0.0000
393, -0.0001
394, 0.0005
395, -0.0001
396, 0.0002
397, 0.0004
398, 0.0010
399, 0.0003
400, 0.0008
##END=
##TITLE=D02 PAR 6 CAF 6 ASA 15
##JCAMP-DX=4.24
##DATA TYPE=UV/VIS SPECTRUM
##ORIGIN=Spectro demo data (simulated)
##OWNER=public domain
##XUNITS=NANOMETERS
##YUNITS=ABSORBANCE
##XFACTOR=1
##YFACTOR=1
##FIRSTX=200
##LASTX=400
##NPOINTS=201
##XYPOINTS=(XY..XY)
200, 2.3176
201, 2.4068
202, 2.4397
203, 2.4540
204, 2.4370
205, 2.3642
206, 2.2708
207, 2.1560
208, 2.0152
209, 1.8639
210, 1.7169
211, 1.5677
212, 1.4224
213, 1.2980
214, 1.1873
215, 1.0876
216, 1.0267
217, 0.9618
218, 0.9275
219, 0.9021
220, 0.8904
221, 0.8934
222, 0.9103
223, 0.9240
224, 0.9460
225, 0.9737
226, 0.9896
227, 1.0041
228, 1.0286
229, 1.0375
230, 1.0438
231, 1.0445
232, 1.0362
233, 1.0186
234, 1.0026
235, 0.9797
236, 0.9516
237, 0.9191
238, 0.8850
239, 0.8478
240, 0.8071
241, 0.7717
242, 0.7305
243, 0.6943
244, 0.6584
245, 0.6238
246, 0.5894
247, 0.5572
248, 0.5322
249, 0.5061
250, 0.4844
251, 0.4627
252, 0.4461
253, 0.4297
254, 0.4165
255, 0.4039
256, 0.3962
257, 0.3897
258, 0.3835
259, 0.3807
260, 0.3793
261, 0.3787
262, 0.3818
263, 0.3886
264, 0.3897
265, 0.3974
266, 0.4024
267, 0.4074
268, 0.4131
269, 0.4198
270, 0.4241
271, 0.4281
272, 0.4273
273, 0.4294
274, 0.4271
275, 0.4229
276, 0.4154
277, 0.4085
278, 0.3959
279, 0.3812
280, 0.3672
281, 0.3490
282, 0.3307
283, 0.3117
284, 0.2896
285, 0.2669
286, 0.2455
287, 0.2244
288, 0.2033
289, 0.1833
290, 0.1626
291, 0.1449
292, 0.1266
293, 0.1115
294, 0.0967
295, 0.0818
296, 0.0713
297, 0.0599
298, 0.0500
299, 0.0418
300, 0.0354
301, 0.0296
302, 0.0243
303, 0.0204
304, 0.0162
305, 0.0122
306, 0.0106
307, 0.0075
308, 0.0057
309, 0.0051
310, 0.0039
311, 0.0027
312, 0.0021
313, 0.0009
314, 0.0009
315, 0.0006
316, 0.0009
317, 0.0001
318, 0.0011
319, -0.0002
320, 0.0012
321, 0.0000
322, 0.0001
323, -0.0005
324, 0.0000
325, -0.0008
326, -0.0004
327, 0.0005
328, 0.0000
329, 0.0005
330, -0.0005
331, 0.0002
332, 0.0001
333, 0.0005
334, 0.0002
335, 0.0000
336, -0.0003
337, 0.0000
338, -0.0001
339, -0.0003
340, 0.0002
341, 0.0004
342, 0.0001
343, -0.0000
344, 0.0001
345, -0.0002
346, -0.0006
347, -0.0000
348, 0.0002
349, -0.0001
350, -0.0002
351, -0.0008
352, 0.0005
353, 0.0007
354, -0.0002
355, -0.0002
356, -0.0002
357, 0.0000
358, -0.0002
359, -0.0002
360, -0.0006
361, -0.0009
362, 0.0001
363, -0.0005
364, -0.0001
365, -0.0000
366, 0.0001
367, -0.0008
368, -0.0002
369, -0.0007
370, -0.0005
371, -0.0004
372, 0.0001
373, 0.0003
374, 0.0004
375, 0.0002
376, -0.0004
377, -0.0002
378, 0.0008
379, -0.0001
380, -0.0006
381, 0.0002
382, -0.0003
383, 0.0003
384, 0.0002
385, 0.0001
386, -0.0002
387, -0.0004
388, 0.0005
389, -0.0005
390, -0.0004
391, -0.0003
392, -0.0009
393, -0.0008
394, -0.0007
395, -0.0001
396, -0.0000
397, -0.0003
398, -0.0004
399, -0.0006
400, -0.0005
##END=
##TITLE=D03 PAR 10 CAF 7.5 ASA 15
##JCAMP-DX=4.24
##DATA TYPE=UV/VIS SPECTRUM
##ORIGIN=Spectro demo data (simulated)
##OWNER=public domain
##XUNITS=NANOMETERS
##YUNITS=ABSORBANCE
##XFACTOR=1
##YFACTOR=1
##FIRSTX=200
##LASTX=400
##NPOINTS=201
##XYPOINTS=(XY..XY)
200, 2.8063
201, 2.8809
202, 2.9362
203, 2.9447
204, 2.9160
205, 2.8480
206, 2.7219
207, 2.5963
208, 2.4263
209, 2.2518
210, 2.0803
211, 1.8999
212, 1.7292
213, 1.5754
214, 1.4324
215, 1.3224
216, 1.2217
217, 1.1516
218, 1.0945
219, 1.0579
220, 1.0490
221, 1.0400
222, 1.0506
223, 1.0669
224, 1.0940
225, 1.1214
226, 1.1476
227, 1.1751
228, 1.2067
229, 1.2200
230, 1.2333
231, 1.2419
232, 1.2440
233, 1.2454
234, 1.2362
235, 1.2198
236, 1.1943
237, 1.1704
238, 1.1385
239, 1.1100
240, 1.0774
241, 1.0376
242, 1.0011
243, 0.9669
244, 0.9296
245, 0.8936
246, 0.8568
247, 0.8231
248, 0.7918
249, 0.7611
250, 0.7300
251, 0.7030
252, 0.6753
253, 0.6526
254, 0.6331
255, 0.6107
256, 0.5943
257, 0.5803
258, 0.5674
259, 0.5542
260, 0.5499
261, 0.5390
262, 0.5381
263, 0.5340
264, 0.5336
265, 0.5328
266, 0.5345
267, 0.5393
268, 0.5376
269, 0.5380
270, 0.5410
271, 0.5423
272, 0.5385
273, 0.5389
274, 0.5322
275, 0.5261
276, 0.5146
277, 0.5059
278, 0.4884
279, 0.4704
280, 0.4525
281, 0.4297
282, 0.4068
283, 0.3836
284, 0.3565
285, 0.3307
286, 0.3048
287, 0.2784
288, 0.2518
289, 0.2290
290, 0.2051
291, 0.1806
292, 0.1596
293, 0.1398
294, 0.1221
295, 0.1048
296, 0.0900
297, 0.0757
298, 0.0635
299, 0.0526
300, 0.0442
301, 0.0351
302, 0.0286
303, 0.0236
304, 0.0180
305, 0.0153
306, 0.0105
307, 0.0081
308, 0.0059
309, 0.0040
310, 0.0022
311, 0.0008
312, -0.0003
313, -0.0010
314, -0.0005
315, -0.0015
316, -0.0024
317, -0.0024
318, -0.0025
319, -0.0019
320, -0.0032
321, -0.0030
322, -0.0031
323, -0.0035
324, -0.0031
325, -0.0032
326, -0.0030
327, -0.0031
328, -0.0024
329, -0.0035
330, -0.0028
331, -0.0021
332, -0.0030
333, -0.0027
334, -0.0026
335, -0.0026
336, -0.0034
337, -0.0029
338, -0.0029
339, -0.0024
340, -0.0025
341, -0.0033
342, -0.0026
343, -0.0023
344, -0.0033
345, -0.0038
346, -0.0023
347, -0.0036
348, -0.0035
349, -0.0033
350, -0.0033
351, -0.0026
352, -0.0027
353, -0.0033
354, -0.0038
355, -0.0030
356, -0.0034
357, -0.0035
358, -0.0036
359, -0.0029
360, -0.0033
361, -0.0036
362, -0.0024
363, -0.0033
364, -0.0037
365, -0.0031
366, -0.0032
367, -0.0025
368, -0.0034
369, -0.0025
370, -0.0034
371, -0.0030
372, -0.0037
373, -0.0031
374, -0.0033
375, -0.0031
376, -0.0032
377, -0.0038
378, -0.0027
379, -0.0027
380, -0.0024
381, -0.0032
382, -0.0032
383, -0.0034
384, -0.0032
385, -0.0026
386, -0.0035
387, -0.0025
388, -0.0028
389, -0.0035
390, -0.0032
391, -0.0032
392, -0.0036
393, -0.0033
394, -0.0030
395, -0.0029
396, -0.0029
397, -0.0032
398, -0.0023
399, -0.0038
400, -0.0030
##END=
##TITLE=D04 PAR 12 CAF 7.5 ASA 9
##JCAMP-DX=4.24
##DATA TYPE=UV/VIS SPECTRUM
##ORIGIN=Spectro demo data (simulated)
##OWNER=public domain
##XUNITS=NANOMETERS
##YUNITS=ABSORBANCE
##XFACTOR=1
##YFACTOR=1
##FIRSTX=200
##LASTX=400
##NPOINTS=201
##XYPOINTS=(XY..XY)
200, 2.4247
201, 2.5000
202, 2.5462
203, 2.5595
204, 2.5314
205, 2.4868
206, 2.3954
207, 2.2885
208, 2.1537
209, 2.0130
210, 1.8512
211, 1.6965
212, 1.5526
213, 1.4193
214, 1.2860
215, 1.1791
216, 1.0863
217, 1.0131
218, 0.9544
219, 0.9105
220, 0.8805
221, 0.8660
222, 0.8671
223, 0.8740
224, 0.8899
225, 0.9097
226, 0.9353
227, 0.9558
228, 0.9831
229, 1.0062
230, 1.0310
231, 1.0462
232, 1.0666
233, 1.0771
234, 1.0785
235, 1.0840
236, 1.0855
237, 1.0831
238, 1.0712
239, 1.0547
240, 1.0467
241, 1.0297
242, 1.0142
243, 0.9869
244, 0.9683
245, 0.9399
246, 0.9148
247, 0.8916
248, 0.8671
249, 0.8447
250, 0.8149
251, 0.7902
252, 0.7636
253, 0.7396
254, 0.7150
255, 0.6952
256, 0.6725
257, 0.6535
258, 0.6326
259, 0.6156
260, 0.6061
261, 0.5939
262, 0.5827
263, 0.5741
264, 0.5665
265, 0.5628
266, 0.5585
267, 0.5533
268, 0.5517
269, 0.5465
270, 0.5432
271, 0.5409
272, 0.5335
273, 0.5254
274, 0.5206
275, 0.5082
276, 0.4991
277, 0.4864
278, 0.4700
279, 0.4524
280, 0.4351
281, 0.4125
282, 0.3929
283, 0.3683
284, 0.3447
285, 0.3207
286, 0.2980
287, 0.2729
288, 0.2503
289, 0.2250
290, 0.2043
291, 0.1818
292, 0.1624
293, 0.1442
294, 0.1249
295, 0.1091
296, 0.0941
297, 0.0811
298, 0.0682
299, 0.0584
300, 0.0491
301, 0.0408
302, 0.0346
303, 0.0281
304, 0.0233
305, 0.0192
306, 0.0150
307, 0.0125
308, 0.0100
309, 0.0079
310, 0.0065
311, 0.0046
312, 0.0048
313, 0.0034
314, 0.0034
315, 0.0021
316, 0.0017
317, 0.0026
318, 0.0013
319, 0.0004
320, 0.0010
321, 0.0009
322, 0.0004
323, 0.0007
324, 0.0005
325, 0.0011
326, 0.0009
327, 0.0015
328, 0.0015
329, 0.0009
330, 0.0012
331, 0.0013
332, 0.0009
333, 0.0012
334, 0.0005
335, 0.0007
336, 0.0008
337, 0.0005
338, 0.0007
339, 0.0009
340, 0.0015
341, 0.0011
342, 0.0002
343, 0.0013
344, 0.0010
345, 0.0007
346, 0.0009
347, 0.0005
348, 0.0010
349, 0.0015
350, 0.0010
351, 0.0007
352, 0.0013
353, 0.0009
354, 0.0009
355, 0.0005
356, 0.0007
357, 0.0010
358, 0.0008
359, 0.0012
360, 0.0005
361, 0.0016
362, 0.0012
363, 0.0014
364, 0.0015
365, 0.0021
366, 0.0015
367, 0.0015
368, 0.0005
369, 0.0019
370, 0.0012
371, 0.0013
372, 0.0014
373, 0.0017
374, 0.0015
375, 0.0020
376, 0.0010
377, 0.0011
378, 0.0016
379, 0.0011
380, 0.0018
381, 0.0012
382, 0.0010
383, 0.0016
384, 0.0012
385, 0.0009
386, 0.0006
387, 0.0012
388, 0.0004
389, 0.0009
390, 0.0023
391, 0.0015
392, 0.0007
393, 0.0008
394, 0.0017
395, 0.0016
396, 0.0018
397, 0.0017
398, 0.0011
399, 0.0014
400, 0.0014
##END=
##TITLE=D05 PAR 12 CAF 4.5 ASA 6
##JCAMP-DX=4.24
##DATA TYPE=UV/VIS SPECTRUM
##ORIGIN=Spectro demo data (simulated)
##OWNER=public domain
##XUNITS=NANOMETERS
##YUNITS=ABSORBANCE
##XFACTOR=1
##YFACTOR=1
##FIRSTX=200
##LASTX=400
##NPOINTS=201
##XYPOINTS=(XY..XY)
200, 1.9125
201, 1.9750
202, 1.9954
203, 1.9966
204, 1.9616
205, 1.9172
206, 1.8271
207, 1.7328
208, 1.6343
209, 1.5112
210, 1.3859
211, 1.2710
212, 1.1494
213, 1.0508
214, 0.9484
215, 0.8703
216, 0.8016
217, 0.7455
218, 0.7084
219, 0.6800
220, 0.6576
221, 0.6599
222, 0.6646
223, 0.6762
224, 0.6955
225, 0.7177
226, 0.7480
227, 0.7719
228, 0.7999
229, 0.8296
230, 0.8568
231, 0.8755
232, 0.9058
233, 0.9248
234, 0.9352
235, 0.9501
236, 0.9571
237, 0.9636
238, 0.9600
239, 0.9620
240, 0.9565
241, 0.9452
242, 0.9370
243, 0.9244
244, 0.9058
245, 0.8886
246, 0.8709
247, 0.8519
248, 0.8256
249, 0.7984
250, 0.7751
251, 0.7457
252, 0.7172
253, 0.6928
254, 0.6646
255, 0.6400
256, 0.6119
257, 0.5867
258, 0.5632
259, 0.5361
260, 0.5185
261, 0.5006
262, 0.4780
263, 0.4638
264, 0.4452
265, 0.4335
266, 0.4198
267, 0.4099
268, 0.4002
269, 0.3904
270, 0.3825
271, 0.3757
272, 0.3672
273, 0.3577
274, 0.3520
275, 0.3407
276, 0.3329
277, 0.3228
278, 0.3131
279, 0.3021
280, 0.2896
281, 0.2749
282, 0.2612
283, 0.2470
284, 0.2310
285, 0.2155
286, 0.1994
287, 0.1836
288, 0.1686
289, 0.1531
290, 0.1387
291, 0.1236
292, 0.1110
293, 0.0988
294, 0.0864
295, 0.0752
296, 0.0656
297, 0.0571
298, 0.0491
299, 0.0407
300, 0.0340
301, 0.0294
302, 0.0226
303, 0.0195
304, 0.0152
305, 0.0125
306, 0.0104
307, 0.0077
308, 0.0061
309, 0.0044
310, 0.0031
311, 0.0025
312, 0.0012
313, 0.0007
314, 0.0006
315, -0.0001
316, -0.0002
317, -0.0004
318, -0.0010
319, -0.0012
320, -0.0014
321, -0.0006
322, -0.0007
323, -0.0015
324, -0.0012
325, -0.0015
326, -0.0020
327, -0.0010
328, -0.0011
329, -0.0007
330, -0.0017
331, -0.0013
332, -0.0020
333, -0.0015
334, -0.0013
335, -0.0014
336, -0.0009
337, -0.0014
338, -0.0005
339, -0.0017
340, -0.0010
341, -0.0017
342, -0.0007
343, -0.0009
344, -0.0014
345, -0.0010
346, -0.0012
347, -0.0011
348, -0.0013
349, -0.0009
350, -0.0015
351, -0.0011
352, -0.0009
353, -0.0012
354, -0.0011
355, -0.0010
356, -0.0013
357, -0.0009
358, -0.0014
359, -0.0014
360, -0.0014
361, -0.0008
362, -0.0018
363, -0.0010
364, -0.0008
365, -0.0016
366, -0.0008
367, -0.0018
368, -0.0007
369, -0.0015
370, -0.0011
371, -0.0004
372, -0.0018
373, -0.0018
374, -0.0016
375, -0.0018
376, -0.0012
377, -0.0020
378, -0.0007
379, -0.0022
380, -0.0022
381, -0.0016
382, -0.0017
383, -0.0020
384, -0.0015
385, -0.0011
386, -0.0007
387, -0.0017
388, -0.0013
389, -0.0013
390, -0.0009
391, -0.0015
392, -0.0021
393, -0.0011
394, -0.0023
395, -0.0014
396, -0.0012
397, -0.0021
398, -0.0019
399, -0.0021
400, -0.0012
##END=
##TITLE=D06 PAR 8 CAF 3 ASA 9
##JCAMP-DX=4.24
##DATA TYPE=UV/VIS SPECTRUM
##ORIGIN=Spectro demo data (simulated)
##OWNER=public domain
##XUNITS=NANOMETERS
##YUNITS=ABSORBANCE
##XFACTOR=1
##YFACTOR=1
##FIRSTX=200
##LASTX=400
##NPOINTS=201
##XYPOINTS=(XY..XY)
200, 1.7116
201, 1.7608
202, 1.8060
203, 1.7927
204, 1.7490
205, 1.6927
206, 1.6232
207, 1.5215
208, 1.4186
209, 1.3101
210, 1.1977
211, 1.0920
212, 0.9828
213, 0.8948
214, 0.8166
215, 0.7467
216, 0.6960
217, 0.6586
218, 0.6387
219, 0.6200
220, 0.6247
221, 0.6282
222, 0.6398
223, 0.6599
224, 0.6805
225, 0.7067
226, 0.7308
227, 0.7519
228, 0.7780
229, 0.7986
230, 0.8201
231, 0.8271
232, 0.8315
233, 0.8386
234, 0.8345
235, 0.8335
236, 0.8227
237, 0.8191
238, 0.8022
239, 0.7884
240, 0.7709
241, 0.7502
242, 0.7303
243, 0.7049
244, 0.6867
245, 0.6622
246, 0.6377
247, 0.6107
248, 0.5904
249, 0.5686
250, 0.5431
251, 0.5219
252, 0.4979
253, 0.4781
254, 0.4576
255, 0.4331
256, 0.4165
257, 0.3982
258, 0.3797
259, 0.3678
260, 0.3520
261, 0.3381
262, 0.3287
263, 0.3190
264, 0.3098
265, 0.3014
266, 0.2945
267, 0.2891
268, 0.2850
269, 0.2806
270, 0.2761
271, 0.2731
272, 0.2691
273, 0.2636
274, 0.2605
275, 0.2567
276, 0.2504
277, 0.2424
278, 0.2352
279, 0.2268
280, 0.2189
281, 0.2088
282, 0.1985
283, 0.1860
284, 0.1748
285, 0.1609
286, 0.1500
287, 0.1365
288, 0.1256
289, 0.1140
290, 0.1011
291, 0.0894
292, 0.0804
293, 0.0710
294, 0.0618
295, 0.0555
296, 0.0468
297, 0.0390
298, 0.0343
299, 0.0287
300, 0.0235
301, 0.0197
302, 0.0158
303, 0.0130
304, 0.0101
305, 0.0082
306, 0.0071
307, 0.0053
308, 0.0040
309, 0.0029
310, 0.0012
311, 0.0013
312, 0.0010
313, 0.0009
314, 0.0008
315, 0.0002
316, 0.0001
317, -0.0006
318, -0.0007
319, -0.0003
320, -0.0009
321, -0.0006
322, -0.0008
323, -0.0007
324, -0.0007
325, -0.0011
326, -0.0001
327, -0.0006
328, -0.0013
329, -0.0002
330, -0.0005
331, -0.0010
332, -0.0007
333, -0.0010
334, -0.0010
335, -0.0007
336, -0.0004
337, -0.0006
338, -0.0009
339, -0.0005
340, -0.0015
341, -0.0002
342, -0.0007
343, -0.0004
344, -0.0009
345, -0.0012
346, -0.0010
347, -0.0002
348, -0.0009
349, -0.0013
350, -0.0007
351, -0.0006
352, -0.0009
353, -0.0003
354, -0.0001
355, -0.0005
356, -0.0013
357, -0.0002
358, -0.0012
359, -0.0010
360, -0.0009
361, -0.0011
362, -0.0007
363, -0.0004
364, -0.0008
365, -0.0005
366, -0.0000
367, -0.0009
368, -0.0008
369, -0.0004
370, -0.0013
371, -0.0010
372, -0.0012
373, -0.0007
374, -0.0011
375, -0.0012
376, -0.0006
377, -0.0011
378, -0.0008
379, -0.0011
380, -0.0015
381, -0.0017
382, -0.0016
383, -0.0015
384, -0.0011
385, -0.0006
386, -0.0008
387, -0.0013
388, -0.0013
389, -0.0008
390, -0.0009
391, -0.0014
392, -0.0009
393, -0.0006
394, -0.0002
395, -0.0006
396, -0.0015
397, -0.0008
398, -0.0007
399, -0.0011
400, -0.0011
##END=
##TITLE=D07 PAR 6 CAF 4.5 ASA 12
##JCAMP-DX=4.24
##DATA TYPE=UV/VIS SPECTRUM
##ORIGIN=Spectro demo data (simulated)
##OWNER=public domain
##XUNITS=NANOMETERS
##YUNITS=ABSORBANCE
##XFACTOR=1
##YFACTOR=1
##FIRSTX=200
##LASTX=400
##NPOINTS=201
##XYPOINTS=(XY..XY)
200, 1.9349
201, 1.9964
202, 2.0418
203, 2.0478
204, 2.0268
205, 1.9701
206, 1.8737
207, 1.7747
208, 1.6652
209, 1.5451
210, 1.4137
211, 1.2901
212, 1.1767
213, 1.0648
214, 0.9731
215, 0.8974
216, 0.8340
217, 0.7860
218, 0.7565
219, 0.7420
220, 0.7334
221, 0.7382
222, 0.7515
223, 0.7665
224, 0.7829
225, 0.8049
226, 0.8301
227, 0.8475
228, 0.8675
229, 0.8788
230, 0.8852
231, 0.8896
232, 0.8885
233, 0.8804
234, 0.8724
235, 0.8570
236, 0.8307
237, 0.8146
238, 0.7881
239, 0.7592
240, 0.7269
241, 0.6975
242, 0.6668
243, 0.6384
244, 0.6075
245, 0.5789
246, 0.5506
247, 0.5264
248, 0.5023
249, 0.4794
250, 0.4574
251, 0.4377
252, 0.4159
253, 0.4028
254, 0.3883
255, 0.3788
256, 0.3627
257, 0.3552
258, 0.3467
259, 0.3406
260, 0.3345
261, 0.3309
262, 0.3300
263, 0.3280
264, 0.3280
265, 0.3273
266, 0.3304
267, 0.3311
268, 0.3372
269, 0.3364
270, 0.3392
271, 0.3396
272, 0.3386
273, 0.3386
274, 0.3362
275, 0.3327
276, 0.3277
277, 0.3176
278, 0.3103
279, 0.3010
280, 0.2880
281, 0.2745
282, 0.2608
283, 0.2437
284, 0.2297
285, 0.2112
286, 0.1943
287, 0.1771
288, 0.1615
289, 0.1460
290, 0.1304
291, 0.1165
292, 0.1016
293, 0.0882
294, 0.0773
295, 0.0659
296, 0.0568
297, 0.0491
298, 0.0407
299, 0.0346
300, 0.0287
301, 0.0239
302, 0.0191
303, 0.0160
304, 0.0129
305, 0.0104
306, 0.0082
307, 0.0063
308, 0.0053
309, 0.0037
310, 0.0028
311, 0.0016
312, 0.0016
313, 0.0010
314, 0.0009
315, -0.0001
316, -0.0003
317, -0.0000
318, -0.0005
319, 0.0002
320, -0.0002
321, -0.0007
322, -0.0002
323, -0.0005
324, 0.0001
325, -0.0000
326, -0.0006
327, -0.0008
328, -0.0003
329, 0.0000
330, 0.0004
331, -0.0002
332, -0.0002
333, 0.0000
334, -0.0001
335, 0.0001
336, 0.0001
337, -0.0000
338, 0.0003
339, -0.0004
340, 0.0000
341, -0.0000
342, -0.0008
343, -0.0001
344, -0.0005
345, -0.0006
346, -0.0002
347, 0.0005
348, 0.0002
349, -0.0000
350, -0.0000
351, -0.0010
352, -0.0002
353, -0.0002
354, -0.0002
355, 0.0002
356, -0.0001
357, 0.0001
358, -0.0006
359, 0.0001
360, 0.0002
361, -0.0002
362, -0.0004
363, -0.0000
364, -0.0004
365, 0.0002
366, -0.0002
367, 0.0002
368, -0.0004
369, -0.0005
370, -0.0008
371, -0.0004
372, 0.0007
373, -0.0003
374, -0.0001
375, 0.0001
376, 0.0004
377, 0.0000
378, -0.0004
379, 0.0002
380, 0.0003
381, -0.0002
382, 0.0002
383, 0.0003
384, 0.0000
385, -0.0002
386, -0.0002
387, -0.0002
388, 0.0001
389, -0.0005
390, -0.0000
391, 0.0002
392, -0.0002
393, -0.0006
394, 0.0002
395, -0.0003
396, -0.0004
397, -0.0001
398, -0.0004
399, 0.0004
400, 0.0001
##END=
##TITLE=D08 PAR 8 CAF 6 ASA 6
##JCAMP-DX=4.24
##DATA TYPE=UV/VIS SPECTRUM
##ORIGIN=Spectro demo data (simulated)
##OWNER=public domain
##XUNITS=NANOMETERS
##YUNITS=ABSORBANCE
##XFACTOR=1
##YFACTOR=1
##FIRSTX=200
##LASTX=400
##NPOINTS=201
##XYPOINTS=(XY..XY)
200, 1.7071
201, 1.7622
202, 1.8025
203, 1.7974
204, 1.8006
205, 1.7649
206, 1.6884
207, 1.6322
208, 1.5407
209, 1.4355
210, 1.3285
211, 1.2280
212, 1.1183
213, 1.0241
214, 0.9333
215, 0.8534
216, 0.7806
217, 0.7264
218, 0.6854
219, 0.6483
220, 0.6222
221, 0.6089
222, 0.6050
223, 0.6054
224, 0.6138
225, 0.6268
226, 0.6370
227, 0.6543
228, 0.6701
229, 0.6829
230, 0.6991
231, 0.7078
232, 0.7185
233, 0.7291
234, 0.7306
235, 0.7307
236, 0.7306
237, 0.7251
238, 0.7219
239, 0.7127
240, 0.7003
241, 0.6873
242, 0.6738
243, 0.6640
244, 0.6510
245, 0.6346
246, 0.6170
247, 0.6035
248, 0.5866
249, 0.5706
250, 0.5539
251, 0.5366
252, 0.5242
253, 0.5078
254, 0.4955
255, 0.4809
256, 0.4703
257, 0.4568
258, 0.4458
259, 0.4411
260, 0.4341
261, 0.4262
262, 0.4228
263, 0.4208
264, 0.4175
265, 0.4159
266, 0.4164
267, 0.4123
268, 0.4130
269, 0.4108
270, 0.4118
271, 0.4081
272, 0.4057
273, 0.4011
274, 0.3964
275, 0.3893
276, 0.3804
277, 0.3705
278, 0.3602
279, 0.3439
280, 0.3321
281, 0.3156
282, 0.3008
283, 0.2816
284, 0.2637
285, 0.2466
286, 0.2256
287, 0.2088
288, 0.1900
289, 0.1711
290, 0.1541
291, 0.1368
292, 0.1218
293, 0.1078
294, 0.0950
295, 0.0810
296, 0.0706
297, 0.0607
298, 0.0508
299, 0.0439
300, 0.0378
301, 0.0311
302, 0.0256
303, 0.0217
304, 0.0175
305, 0.0145
306, 0.0125
307, 0.0098
308, 0.0071
309, 0.0062
310, 0.0047
311, 0.0039
312, 0.0034
313, 0.0026
314, 0.0031
315, 0.0018
316, 0.0021
317, 0.0019
318, 0.0016
319, 0.0014
320, 0.0011
321, 0.0015
322, 0.0009
323, 0.0012
324, -0.0003
325, 0.0005
326, 0.0012
327, 0.0011
328, 0.0013
329, 0.0010
330, 0.0008
331, 0.0013
332, 0.0001
333, 0.0021
334, 0.0002
335, 0.0011
336, 0.0006
337, 0.0010
338, 0.0008
339, -0.0000
340, 0.0004
341, 0.0008
342, 0.0016
343, 0.0007
344, 0.0007
345, 0.0010
346, 0.0014
347, 0.0009
348, 0.0014
349, 0.0005
350, 0.0003
351, 0.0007
352, 0.0010
353, 0.0006
354, 0.0013
355, 0.0004
356, 0.0014
357, 0.0008
358, 0.0010
359, 0.0014
360, 0.0007
361, 0.0011
362, 0.0008
363, 0.0010
364, 0.0012
365, 0.0005
366, 0.0010
367, 0.0013
368, 0.0013
369, 0.0010
370, 0.0001
371, 0.0008
372, 0.0005
373, 0.0017
374, 0.0013
375, -0.0001
376, 0.0014
377, 0.0012
378, 0.0009
379, 0.0011
380, 0.0013
381, 0.0012
382, 0.0015
383, 0.0020
384, 0.0013
385, 0.0002
386, 0.0011
387, 0.0009
388, 0.0008
389, 0.0006
390, 0.0005
391, 0.0006
392, 0.0007
393, 0.0007
394, 0.0008
395, 0.0009
396, 0.0009
397, 0.0004
398, 0.0010
399, 0.0010
400, 0.0009
##END=
##TITLE=D09 PAR 10 CAF 3 ASA 6
##JCAMP-DX=4.24
##DATA TYPE=UV/VIS SPECTRUM
##ORIGIN=Spectro demo data (simulated)
##OWNER=public domain
##XUNITS=NANOMETERS
##YUNITS=ABSORBANCE
##XFACTOR=1
##YFACTOR=1
##FIRSTX=200
##LASTX=400
##NPOINTS=201
##XYPOINTS=(XY..XY)
200, 1.6177
201, 1.6580
202, 1.6806
203, 1.6836
204, 1.6486
205, 1.6063
206, 1.5283
207, 1.4384
208, 1.3396
209, 1.2410
210, 1.1317
211, 1.0363
212, 0.9379
213, 0.8470
214, 0.7765
215, 0.7050
216, 0.6584
217, 0.6151
218, 0.5865
219, 0.5697
220, 0.5658
221, 0.5677
222, 0.5774
223, 0.5905
224, 0.6157
225, 0.6341
226, 0.6592
227, 0.6888
228, 0.7148
229, 0.7348
230, 0.7589
231, 0.7775
232, 0.7977
233, 0.8090
234, 0.8225
235, 0.8313
236, 0.8379
237, 0.8359
238, 0.8360
239, 0.8279
240, 0.8192
241, 0.8134
242, 0.8012
243, 0.7845
244, 0.7710
245, 0.7523
246, 0.7335
247, 0.7156
248, 0.6899
249, 0.6701
250, 0.6445
251, 0.6233
252, 0.5952
253, 0.5734
254, 0.5478
255, 0.5201
256, 0.4975
257, 0.4772
258, 0.4533
259, 0.4337
260, 0.4105
261, 0.3943
262, 0.3786
263, 0.3616
264, 0.3452
265, 0.3364
266, 0.3228
267, 0.3122
268, 0.3033
269, 0.2966
270, 0.2873
271, 0.2806
272, 0.2744
273, 0.2687
274, 0.2624
275, 0.2544
276, 0.2489
277, 0.2398
278, 0.2313
279, 0.2240
280, 0.2144
281, 0.2043
282, 0.1930
283, 0.1858
284, 0.1729
285, 0.1614
286, 0.1492
287, 0.1388
288, 0.1276
289, 0.1166
290, 0.1047
291, 0.0946
292, 0.0846
293, 0.0757
294, 0.0652
295, 0.0578
296, 0.0498
297, 0.0427
298, 0.0373
299, 0.0315
300, 0.0273
301, 0.0235
302, 0.0193
303, 0.0157
304, 0.0131
305, 0.0107
306, 0.0094
307, 0.0072
308, 0.0063
309, 0.0047
310, 0.0046
311, 0.0042
312, 0.0027
313, 0.0017
314, 0.0020
315, 0.0017
316, 0.0012
317, 0.0022
318, 0.0002
319, 0.0012
320, 0.0007
321, 0.0016
322, 0.0009
323, 0.0015
324, 0.0006
325, 0.0011
326, 0.0014
327, 0.0017
328, 0.0013
329, 0.0013
330, 0.0010
331, 0.0011
332, 0.0011
333, 0.0015
334, 0.0007
335, 0.0010
336, 0.0007
337, 0.0009
338, 0.0011
339, 0.0015
340, 0.0010
341, 0.0008
342, 0.0018
343, 0.0013
344, 0.0018
345, 0.0010
346, 0.0014
347, 0.0008
348, 0.0008
349, 0.0010
350, 0.0013
351, 0.0011
352, 0.0005
353, 0.0017
354, 0.0012
355, 0.0008
356, 0.0017
357, 0.0013
358, 0.0005
359, 0.0006
360, 0.0009
361, 0.0007
362, 0.0010
363, 0.0009
364, 0.0009
365, 0.0019
366, 0.0005
367, 0.0006
368, 0.0005
369, 0.0012
370, 0.0014
371, 0.0012
372, -0.0000
373, 0.0008
374, 0.0016
375, 0.0005
376, 0.0015
377, 0.0010
378, 0.0014
379, 0.0006
380, 0.0011
381, 0.0017
382, 0.0010
383, 0.0017
384, 0.0011
385, 0.0008
386, 0.0012
387, 0.0012
388, 0.0013
389, 0.0018
390, 0.0008
391, 0.0014
392, 0.0011
393, 0.0014
394, 0.0015
395, 0.0014
396, 0.0018
397, 0.0012
398, 0.0011
399, 0.0010
400, 0.0019
##END=
##TITLE=D10 PAR 6 CAF 3 ASA 18
##JCAMP-DX=4.24
##DATA TYPE=UV/VIS SPECTRUM
##ORIGIN=Spectro demo data (simulated)
##OWNER=public domain
##XUNITS=NANOMETERS
##YUNITS=ABSORBANCE
##XFACTOR=1
##YFACTOR=1
##FIRSTX=200
##LASTX=400
##NPOINTS=201
##XYPOINTS=(XY..XY)
200, 2.3275
201, 2.4082
202, 2.4463
203, 2.4399
204, 2.4086
205, 2.3248
206, 2.2139
207, 2.0636
208, 1.9250
209, 1.7593
210, 1.5958
211, 1.4407
212, 1.2984
213, 1.1845
214, 1.0761
215, 0.9934
216, 0.9383
217, 0.9059
218, 0.8826
219, 0.8855
220, 0.8945
221, 0.9115
222, 0.9471
223, 0.9797
224, 1.0130
225, 1.0508
226, 1.0836
227, 1.1160
228, 1.1333
229, 1.1532
230, 1.1523
231, 1.1588
232, 1.1540
233, 1.1392
234, 1.1122
235, 1.0917
236, 1.0550
237, 1.0086
238, 0.9735
239, 0.9216
240, 0.8753
241, 0.8282
242, 0.7839
243, 0.7377
244, 0.6929
245, 0.6481
246, 0.6084
247, 0.5700
248, 0.5350
249, 0.5036
250, 0.4736
251, 0.4443
252, 0.4213
253, 0.3974
254, 0.3794
255, 0.3604
256, 0.3452
257, 0.3284
258, 0.3179
259, 0.3088
260, 0.3020
261, 0.2927
262, 0.2889
263, 0.2850
264, 0.2836
265, 0.2823
266, 0.2819
267, 0.2857
268, 0.2856
269, 0.2877
270, 0.2899
271, 0.2931
272, 0.2941
273, 0.2949
274, 0.2919
275, 0.2895
276, 0.2864
277, 0.2796
278, 0.2740
279, 0.2662
280, 0.2558
281, 0.2432
282, 0.2293
283, 0.2176
284, 0.2016
285, 0.1871
286, 0.1720
287, 0.1552
288, 0.1415
289, 0.1268
290, 0.1125
291, 0.1006
292, 0.0878
293, 0.0766
294, 0.0651
295, 0.0568
296, 0.0480
297, 0.0398
298, 0.0339
299, 0.0271
300, 0.0234
301, 0.0189
302, 0.0151
303, 0.0125
304, 0.0093
305, 0.0076
306, 0.0055
307, 0.0041
308, 0.0035
309, 0.0026
310, 0.0020
311, 0.0009
312, 0.0001
313, 0.0006
314, -0.0006
315, -0.0004
316, -0.0005
317, -0.0007
318, -0.0003
319, -0.0006
320, -0.0007
321, -0.0004
322, -0.0002
323, -0.0001
324, -0.0007
325, -0.0009
326, -0.0016
327, -0.0011
328, -0.0008
329, -0.0008
330, -0.0007
331, -0.0016
332, -0.0013
333, -0.0009
334, -0.0004
335, -0.0007
336, -0.0009
337, -0.0004
338, -0.0007
339, -0.0011
340, -0.0016
341, -0.0013
342, -0.0006
343, -0.0013
344, -0.0003
345, -0.0001
346, -0.0006
347, -0.0008
348, -0.0012
349, -0.0011
350, -0.0014
351, -0.0009
352, -0.0014
353, -0.0003
354, -0.0022
355, -0.0014
356, -0.0010
357, -0.0012
358, -0.0008
359, -0.0011
360, -0.0007
361, -0.0008
362, -0.0009
363, -0.0011
364, -0.0013
365, -0.0018
366, -0.0007
367, -0.0007
368, -0.0014
369, -0.0009
370, -0.0012
371, -0.0010
372, -0.0008
373, -0.0012
374, -0.0012
375, -0.0009
376, -0.0009
377, -0.0011
378, -0.0014
379, -0.0016
380, -0.0009
381, -0.0015
382, -0.0018
383, -0.0006
384, -0.0013
385, -0.0010
386, -0.0012
387, -0.0012
388, -0.0013
389, -0.0009
390, -0.0010
391, -0.0010
392, -0.0013
393, -0.0018
394, -0.0013
395, -0.0008
396, -0.0020
397, -0.0012
398, -0.0016
399, -0.0019
400, -0.0013
##END=
##TITLE=D11 PAR 6 CAF 9 ASA 9
##JCAMP-DX=4.24
##DATA TYPE=UV/VIS SPECTRUM
##ORIGIN=Spectro demo data (simulated)
##OWNER=public domain
##XUNITS=NANOMETERS
##YUNITS=ABSORBANCE
##XFACTOR=1
##YFACTOR=1
##FIRSTX=200
##LASTX=400
##NPOINTS=201
##XYPOINTS=(XY..XY)
200, 2.0671
201, 2.1369
202, 2.2022
203, 2.1950
204, 2.2034
205, 2.1625
206, 2.1159
207, 2.0225
208, 1.9113
209, 1.7911
210, 1.6667
211, 1.5400
212, 1.4193
213, 1.2962
214, 1.1711
215, 1.0841
216, 1.0014
217, 0.9264
218, 0.8651
219, 0.8199
220, 0.7900
221, 0.7662
222, 0.7513
223, 0.7504
224, 0.7506
225, 0.7556
226, 0.7624
227, 0.7721
228, 0.7784
229, 0.7837
230, 0.7866
231, 0.7898
232, 0.7900
233, 0.7808
234, 0.7695
235, 0.7586
236, 0.7437
237, 0.7248
238, 0.7061
239, 0.6802
240, 0.6603
241, 0.6391
242, 0.6194
243, 0.5962
244, 0.5742
245, 0.5527
246, 0.5316
247, 0.5171
248, 0.5004
249, 0.4878
250, 0.4764
251, 0.4637
252, 0.4543
253, 0.4486
254, 0.4451
255, 0.4449
256, 0.4398
257, 0.4427
258, 0.4453
259, 0.4507
260, 0.4574
261, 0.4621
262, 0.4707
263, 0.4849
264, 0.4939
265, 0.5033
266, 0.5138
267, 0.5237
268, 0.5320
269, 0.5413
270, 0.5483
271, 0.5489
272, 0.5523
273, 0.5509
274, 0.5455
275, 0.5379
276, 0.5276
277, 0.5159
278, 0.5014
279, 0.4837
280, 0.4632
281, 0.4397
282, 0.4158
283, 0.3895
284, 0.3618
285, 0.3333
286, 0.3059
287, 0.2821
288, 0.2548
289, 0.2311
290, 0.2059
291, 0.1817
292, 0.1606
293, 0.1422
294, 0.1222
295, 0.1045
296, 0.0899
297, 0.0766
298, 0.0654
299, 0.0544
300, 0.0453
301, 0.0369
302, 0.0301
303, 0.0249
304, 0.0194
305, 0.0152
306, 0.0125
307, 0.0098
308, 0.0071
309, 0.0055
310, 0.0042
311, 0.0023
312, 0.0014
313, 0.0016
314, 0.0015
315, 0.0001
316, 0.0005
317, 0.0003
318, -0.0000
319, -0.0005
320, -0.0003
321, -0.0005
322, -0.0008
323, -0.0009
324, -0.0000
325, -0.0011
326, -0.0006
327, -0.0009
328, -0.0005
329, -0.0004
330, -0.0006
331, -0.0005
332, -0.0006
333, -0.0014
334, -0.0013
335, 0.0000
336, -0.0010
337, -0.0010
338, -0.0004
339, -0.0000
340, -0.0013
341, -0.0007
342, -0.0002
343, -0.0006
344, -0.0007
345, -0.0010
346, -0.0007
347, -0.0014
348, -0.0005
349, -0.0006
350, -0.0010
351, -0.0020
352, -0.0005
353, -0.0012
354, -0.0014
355, -0.0006
356, -0.0001
357, -0.0013
358, -0.0012
359, -0.0006
360, -0.0017
361, -0.0011
362, -0.0014
363, -0.0007
364, -0.0004
365, -0.0010
366, -0.0004
367, -0.0008
368, -0.0004
369, -0.0012
370, -0.0009
371, -0.0011
372, -0.0013
373, -0.0009
374, -0.0007
375, -0.0010
376, -0.0001
377, -0.0005
378, -0.0006
379, -0.0010
380, -0.0002
381, -0.0013
382, -0.0006
383, -0.0003
384, -0.0016
385, -0.0008
386, 0.0000
387, -0.0007
388, -0.0007
389, -0.0004
390, -0.0008
391, -0.0013
392, -0.0007
393, -0.0013
394, -0.0002
395, -0.0013
396, -0.0010
397, -0.0011
398, -0.0009
399, -0.0013
400, -0.0003
##END=
##TITLE=D12 PAR 14 CAF 4.5 ASA 18
##JCAMP-DX=4.24
##DATA TYPE=UV/VIS SPECTRUM
##ORIGIN=Spectro demo data (simulated)
##OWNER=public domain
##XUNITS=NANOMETERS
##YUNITS=ABSORBANCE
##XFACTOR=1
##YFACTOR=1
##FIRSTX=200
##LASTX=400
##NPOINTS=201
##XYPOINTS=(XY..XY)
200, 3.1343
201, 3.2199
202, 3.2569
203, 3.2471
204, 3.1935
205, 3.0649
206, 2.9222
207, 2.7676
208, 2.5641
209, 2.3558
210, 2.1444
211, 1.9352
212, 1.7556
213, 1.5868
214, 1.4484
215, 1.3333
216, 1.2422
217, 1.1861
218, 1.1474
219, 1.1284
220, 1.1368
221, 1.1558
222, 1.1839
223, 1.2296
224, 1.2616
225, 1.3170
226, 1.3620
227, 1.4075
228, 1.4494
229, 1.4850
230, 1.5103
231, 1.5341
232, 1.5514
233, 1.5540
234, 1.5455
235, 1.5322
236, 1.5207
237, 1.4950
238, 1.4663
239, 1.4346
240, 1.3928
241, 1.3546
242, 1.3124
243, 1.2706
244, 1.2238
245, 1.1793
246, 1.1331
247, 1.0875
248, 1.0386
249, 0.9977
250, 0.9553
251, 0.9087
252, 0.8729
253, 0.8268
254, 0.7859
255, 0.7486
256, 0.7136
257, 0.6842
258, 0.6518
259, 0.6236
260, 0.5970
261, 0.5689
262, 0.5505
263, 0.5326
264, 0.5156
265, 0.5003
266, 0.4881
267, 0.4795
268, 0.4696
269, 0.4651
270, 0.4552
271, 0.4506
272, 0.4424
273, 0.4364
274, 0.4284
275, 0.4208
276, 0.4143
277, 0.4025
278, 0.3929
279, 0.3777
280, 0.3607
281, 0.3435
282, 0.3270
283, 0.3093
284, 0.2884
285, 0.2675
286, 0.2471
287, 0.2289
288, 0.2076
289, 0.1885
290, 0.1686
291, 0.1505
292, 0.1339
293, 0.1173
294, 0.1013
295, 0.0889
296, 0.0764
297, 0.0653
298, 0.0544
299, 0.0466
300, 0.0384
301, 0.0318
302, 0.0263
303, 0.0207
304, 0.0173
305, 0.0136
306, 0.0103
307, 0.0084
308, 0.0059
309, 0.0041
310, 0.0031
311, 0.0017
312, 0.0006
313, 0.0004
314, 0.0008
315, 0.0001
316, -0.0007
317, -0.0010
318, -0.0016
319, -0.0006
320, -0.0013
321, -0.0008
322, -0.0018
323, -0.0018
324, -0.0016
325, -0.0015
326, -0.0016
327, -0.0015
328, -0.0010
329, -0.0018
330, -0.0014
331, -0.0019
332, -0.0017
333, -0.0013
334, -0.0016
335, -0.0013
336, -0.0017
337, -0.0016
338, -0.0012
339, -0.0012
340, -0.0016
341, -0.0018
342, -0.0015
343, -0.0009
344, -0.0015
345, -0.0018
346, -0.0004
347, -0.0013
348, -0.0003
349, -0.0015
350, -0.0018
351, -0.0017
352, -0.0016
353, -0.0014
354, -0.0011
355, -0.0018
356, -0.0011
357, -0.0012
358, -0.0009
359, -0.0014
360, -0.0009
361, -0.0011
362, -0.0016
363, -0.0015
364, -0.0009
365, -0.0011
366, -0.0012
367, -0.0011
368, -0.0012
369, -0.0016
370, -0.0010
371, -0.0007
372, -0.0010
373, -0.0015
374, -0.0019
375, -0.0012
376, -0.0018
377, -0.0014
378, -0.0016
379, -0.0013
380, -0.0008
381, -0.0014
382, -0.0010
383, -0.0011
384, -0.0014
385, -0.0002
386, -0.0013
387, -0.0017
388, -0.0016
389, -0.0015
390, -0.0016
391, -0.0007
392, -0.0018
393, -0.0016
394, -0.0014
395, -0.0009
396, -0.0013
397, -0.0008
398, -0.0017
399, -0.0017
400, -0.0015
##END=
##TITLE=D13 PAR 8 CAF 9 ASA 12
##JCAMP-DX=4.24
##DATA TYPE=UV/VIS SPECTRUM
##ORIGIN=Spectro demo data (simulated)
##OWNER=public domain
##XUNITS=NANOMETERS
##YUNITS=ABSORBANCE
##XFACTOR=1
##YFACTOR=1
##FIRSTX=200
##LASTX=400
##NPOINTS=201
##XYPOINTS=(XY..XY)
200, 2.4573
201, 2.5519
202, 2.6414
203, 2.6489
204, 2.6413
205, 2.5949
206, 2.4994
207, 2.3915
208, 2.2449
209, 2.1013
210, 1.9494
211, 1.7897
212, 1.6408
213, 1.4932
214, 1.3626
215, 1.2584
216, 1.1503
217, 1.0770
218, 1.0151
219, 0.9707
220, 0.9459
221, 0.9282
222, 0.9223
223, 0.9256
224, 0.9408
225, 0.9509
226, 0.9706
227, 0.9826
228, 0.9975
229, 1.0118
230, 1.0202
231, 1.0239
232, 1.0264
233, 1.0186
234, 1.0095
235, 0.9947
236, 0.9785
237, 0.9596
238, 0.9295
239, 0.9021
240, 0.8757
241, 0.8432
242, 0.8171
243, 0.7868
244, 0.7578
245, 0.7269
246, 0.7048
247, 0.6786
248, 0.6533
249, 0.6334
250, 0.6124
251, 0.5927
252, 0.5761
253, 0.5652
254, 0.5536
255, 0.5442
256, 0.5378
257, 0.5290
258, 0.5242
259, 0.5251
260, 0.5251
261, 0.5265
262, 0.5309
263, 0.5364
264, 0.5409
265, 0.5501
266, 0.5566
267, 0.5647
268, 0.5726
269, 0.5766
270, 0.5807
271, 0.5864
272, 0.5836
273, 0.5822
274, 0.5786
275, 0.5685
276, 0.5587
277, 0.5450
278, 0.5318
279, 0.5093
280, 0.4890
281, 0.4654
282, 0.4408
283, 0.4135
284, 0.3891
285, 0.3591
286, 0.3287
287, 0.3014
288, 0.2729
289, 0.2473
290, 0.2218
291, 0.1965
292, 0.1735
293, 0.1523
294, 0.1332
295, 0.1156
296, 0.0997
297, 0.0843
298, 0.0710
299, 0.0606
300, 0.0509
301, 0.0413
302, 0.0346
303, 0.0285
304, 0.0241
305, 0.0187
306, 0.0155
307, 0.0115
308, 0.0093
309, 0.0079
310, 0.0064
311, 0.0056
312, 0.0049
313, 0.0036
314, 0.0026
315, 0.0018
316, 0.0031
317, 0.0018
318, 0.0015
319, 0.0013
320, 0.0011
321, 0.0016
322, 0.0012
323, 0.0018
324, 0.0012
325, 0.0012
326, 0.0009
327, 0.0001
328, 0.0016
329, 0.0010
330, 0.0010
331, 0.0009
332, 0.0012
333, 0.0005
334, 0.0017
335, 0.0011
336, 0.0007
337, 0.0012
338, 0.0016
339, 0.0012
340, 0.0011
341, 0.0014
342, 0.0019
343, 0.0009
344, 0.0009
345, 0.0005
346, 0.0021
347, 0.0015
348, 0.0012
349, 0.0008
350, 0.0007
351, 0.0022
352, 0.0001
353, 0.0009
354, 0.0013
355, 0.0009
356, 0.0012
357, 0.0013
358, 0.0009
359, 0.0011
360, 0.0013
361, 0.0010
362, 0.0008
363, 0.0020
364, 0.0012
365, 0.0015
366, 0.0014
367, 0.0017
368, 0.0013
369, 0.0009
370, 0.0017
371, 0.0011
372, 0.0011
373, 0.0014
374, 0.0018
375, 0.0013
376, 0.0014
377, 0.0017
378, 0.0016
379, 0.0010
380, 0.0015
381, 0.0018
382, 0.0020
383, 0.0010
384, 0.0018
385, 0.0014
386, 0.0012
387, 0.0011
388, 0.0011
389, 0.0009
390, 0.0008
391, 0.0009
392, 0.0011
393, 0.0019
394, 0.0015
395, 0.0006
396, 0.0019
397, 0.0012
398, 0.0006
399, 0.0018
400, 0.0002
##END=
##TITLE=D14 PAR 14 CAF 6 ASA 9
##JCAMP-DX=4.24
##DATA TYPE=UV/VIS SPECTRUM
##ORIGIN=Spectro demo data (simulated)
##OWNER=public domain
##XUNITS=NANOMETERS
##YUNITS=ABSORBANCE
##XFACTOR=1
##YFACTOR=1
##FIRSTX=200
##LASTX=400
##NPOINTS=201
##XYPOINTS=(XY..XY)
200, 2.4706
201, 2.5504
202, 2.5840
203, 2.5858
204, 2.5502
205, 2.4994
206, 2.3843
207, 2.2647
208, 2.1212
209, 1.9738
210, 1.8124
211, 1.6598
212, 1.5124
213, 1.3736
214, 1.2503
215, 1.1341
216, 1.0583
217, 0.9858
218, 0.9287
219, 0.8950
220, 0.8784
221, 0.8733
222, 0.8803
223, 0.8964
224, 0.9142
225, 0.9475
226, 0.9757
227, 1.0109
228, 1.0469
229, 1.0790
230, 1.1105
231, 1.1316
232, 1.1569
233, 1.1721
234, 1.1894
235, 1.1916
236, 1.1962
237, 1.2010
238, 1.1926
239, 1.1841
240, 1.1767
241, 1.1554
242, 1.1415
243, 1.1219
244, 1.0954
245, 1.0719
246, 1.0439
247, 1.0170
248, 0.9859
249, 0.9545
250, 0.9254
251, 0.8919
252, 0.8564
253, 0.8285
254, 0.7965
255, 0.7625
256, 0.7330
257, 0.7080
258, 0.6771
259, 0.6544
260, 0.6283
261, 0.6079
262, 0.5892
263, 0.5717
264, 0.5553
265, 0.5445
266, 0.5284
267, 0.5173
268, 0.5061
269, 0.5019
270, 0.4912
271, 0.4856
272, 0.4766
273, 0.4700
274, 0.4592
275, 0.4508
276, 0.4372
277, 0.4257
278, 0.4090
279, 0.3968
280, 0.3805
281, 0.3627
282, 0.3449
283, 0.3257
284, 0.3048
285, 0.2846
286, 0.2645
287, 0.2432
288, 0.2219
289, 0.2001
290, 0.1826
291, 0.1626
292, 0.1465
293, 0.1287
294, 0.1119
295, 0.0983
296, 0.0849
297, 0.0737
298, 0.0634
299, 0.0534
300, 0.0453
301, 0.0376
302, 0.0315
303, 0.0257
304, 0.0206
305, 0.0174
306, 0.0141
307, 0.0110
308, 0.0091
309, 0.0074
310, 0.0053
311, 0.0042
312, 0.0031
313, 0.0026
314, 0.0026
315, 0.0021
316, 0.0019
317, 0.0013
318, 0.0016
319, 0.0006
320, 0.0007
321, 0.0001
322, 0.0008
323, 0.0001
324, 0.0003
325, 0.0011
326, 0.0004
327, 0.0003
328, 0.0004
329, 0.0003
330, 0.0005
331, 0.0014
332, 0.0001
333, -0.0002
334, 0.0002
335, 0.0012
336, 0.0010
337, 0.0002
338, 0.0008
339, 0.0004
340, -0.0007
341, 0.0002
342, 0.0006
343, 0.0005
344, 0.0008
345, -0.0006
346, 0.0002
347, -0.0000
348, 0.0005
349, 0.0006
350, -0.0002
351, 0.0008
352, 0.0008
353, 0.0008
354, 0.0005
355, 0.0001
356, 0.0010
357, 0.0004
358, 0.0008
359, 0.0008
360, -0.0003
361, 0.0013
362, 0.0000
363, 0.0005
364, 0.0007
365, 0.0004
366, 0.0009
367, 0.0010
368, 0.0006
369, 0.0014
370, -0.0000
371, 0.0007
372, 0.0009
373, -0.0001
374, 0.0004
375, 0.0001
376, 0.0007
377, 0.0004
378, 0.0006
379, 0.0005
380, 0.0008
381, 0.0006
382, 0.0008
383, 0.0009
384, 0.0004
385, 0.0004
386, 0.0006
387, 0.0001
388, 0.0003
389, 0.0009
390, 0.0006
391, 0.0003
392, 0.0007
393, 0.0003
394, 0.0005
395, 0.0002
396, 0.0005
397, 0.0009
398, 0.0005
399, 0.0002
400, 0.0014
##END=
##TITLE=D15 PAR 10 CAF 4.5 ASA 9
##JCAMP-DX=4.24
##DATA TYPE=UV/VIS SPECTRUM
##ORIGIN=Spectro demo data (simulated)
##OWNER=public domain
##XUNITS=NANOMETERS
##YUNITS=ABSORBANCE
##XFACTOR=1
##YFACTOR=1
##FIRSTX=200
##LASTX=400
##NPOINTS=201
##XYPOINTS=(XY..XY)
200, 2.0179
201, 2.0605
202, 2.1128
203, 2.1147
204, 2.0702
205, 2.0096
206, 1.9306
207, 1.8251
208, 1.6975
209, 1.5772
210, 1.4545
211, 1.3282
212, 1.2031
213, 1.0969
214, 0.9996
215, 0.9139
216, 0.8487
217, 0.7919
218, 0.7587
219, 0.7377
220, 0.7300
221, 0.7241
222, 0.7416
223, 0.7526
224, 0.7701
225, 0.7988
226, 0.8237
227, 0.8505
228, 0.8753
229, 0.9002
230, 0.9180
231, 0.9338
232, 0.9515
233, 0.9547
234, 0.9580
235, 0.9586
236, 0.9582
237, 0.9517
238, 0.9392
239, 0.9239
240, 0.9017
241, 0.8887
242, 0.8700
243, 0.8448
244, 0.8264
245, 0.8017
246, 0.7767
247, 0.7521
248, 0.7280
249, 0.7019
250, 0.6762
251, 0.6532
252, 0.6264
253, 0.6037
254, 0.5775
255, 0.5569
256, 0.5356
257, 0.5138
258, 0.4954
259, 0.4769
260, 0.4614
261, 0.4446
262, 0.4336
263, 0.4221
264, 0.4124
265, 0.4017
266, 0.3973
267, 0.3912
268, 0.3849
269, 0.3812
270, 0.3754
271, 0.3703
272, 0.3633
273, 0.3583
274, 0.3531
275, 0.3453
276, 0.3385
277, 0.3298
278, 0.3182
279, 0.3064
280, 0.2949
281, 0.2802
282, 0.2669
283, 0.2534
284, 0.2352
285, 0.2196
286, 0.2036
287, 0.1867
288, 0.1712
289, 0.1560
290, 0.1388
291, 0.1244
292, 0.1106
293, 0.0989
294, 0.0860
295, 0.0745
296, 0.0655
297, 0.0575
298, 0.0484
299, 0.0420
300, 0.0343
301, 0.0297
302, 0.0244
303, 0.0209
304, 0.0165
305, 0.0143
306, 0.0115
307, 0.0083
308, 0.0083
309, 0.0068
310, 0.0058
311, 0.0045
312, 0.0040
313, 0.0038
314, 0.0029
315, 0.0023
316, 0.0019
317, 0.0016
318, 0.0021
319, 0.0017
320, 0.0018
321, 0.0020
322, 0.0019
323, 0.0012
324, 0.0015
325, 0.0013
326, 0.0012
327, 0.0014
328, 0.0012
329, 0.0015
330, 0.0018
331, 0.0018
332, 0.0024
333, 0.0017
334, 0.0017
335, 0.0016
336, 0.0013
337, 0.0012
338, 0.0017
339, 0.0020
340, 0.0012
341, 0.0013
342, 0.0022
343, 0.0018
344, 0.0018
345, 0.0015
346, 0.0018
347, 0.0010
348, 0.0013
349, 0.0019
350, 0.0017
351, 0.0018
352, 0.0011
353, 0.0011
354, 0.0022
355, 0.0014
356, 0.0013
357, 0.0018
358, 0.0020
359, 0.0012
360, 0.0012
361, 0.0014
362, 0.0015
363, 0.0016
364, 0.0017
365, 0.0018
366, 0.0021
367, 0.0012
368, 0.0022
369, 0.0014
370, 0.0008
371, 0.0015
372, 0.0015
373, 0.0010
374, 0.0010
375, 0.0014
376, 0.0024
377, 0.0017
378, 0.0021
379, 0.0017
380, 0.0013
381, 0.0020
382, 0.0016
383, 0.0020
384, 0.0017
385, 0.0018
386, 0.0018
387, 0.0015
388, 0.0012
389, 0.0011
390, 0.0019
391, 0.0017
392, 0.0020
393, 0.0020
394, 0.0023
395, 0.0014
396, 0.0016
397, 0.0022
398, 0.0018
399, 0.0014
400, 0.0017
##END=
##TITLE=D16 PAR 8 CAF 4.5 ASA 15
##JCAMP-DX=4.24
##DATA TYPE=UV/VIS SPECTRUM
##ORIGIN=Spectro demo data (simulated)
##OWNER=public domain
##XUNITS=NANOMETERS
##YUNITS=ABSORBANCE
##XFACTOR=1
##YFACTOR=1
##FIRSTX=200
##LASTX=400
##NPOINTS=201
##XYPOINTS=(XY..XY)
200, 2.3594
201, 2.4423
202, 2.4728
203, 2.4696
204, 2.4474
205, 2.3436
206, 2.2408
207, 2.1173
208, 1.9598
209, 1.8175
210, 1.6576
211, 1.5083
212, 1.3692
213, 1.2345
214, 1.1304
215, 1.0483
216, 0.9805
217, 0.9251
218, 0.9037
219, 0.8867
220, 0.8883
221, 0.8938
222, 0.9162
223, 0.9487
224, 0.9723
225, 1.0065
226, 1.0321
227, 1.0632
228, 1.0866
229, 1.1009
230, 1.1120
231, 1.1231
232, 1.1166
233, 1.1121
234, 1.1019
235, 1.0850
236, 1.0570
237, 1.0331
238, 0.9985
239, 0.9637
240, 0.9289
241, 0.8894
242, 0.8555
243, 0.8239
244, 0.7818
245, 0.7453
246, 0.7140
247, 0.6789
248, 0.6443
249, 0.6156
250, 0.5877
251, 0.5599
252, 0.5368
253, 0.5115
254, 0.4930
255, 0.4717
256, 0.4518
257, 0.4373
258, 0.4240
259, 0.4124
260, 0.4025
261, 0.3936
262, 0.3881
263, 0.3842
264, 0.3774
265, 0.3756
266, 0.3748
267, 0.3747
268, 0.3747
269, 0.3741
270, 0.3757
271, 0.3737
272, 0.3717
273, 0.3714
274, 0.3657
275, 0.3632
276, 0.3577
277, 0.3453
278, 0.3380
279, 0.3274
280, 0.3116
281, 0.2986
282, 0.2821
283, 0.2645
284, 0.2462
285, 0.2293
286, 0.2111
287, 0.1919
288, 0.1743
289, 0.1569
290, 0.1423
291, 0.1238
292, 0.1093
293, 0.0957
294, 0.0839
295, 0.0737
296, 0.0619
297, 0.0527
298, 0.0449
299, 0.0380
300, 0.0305
301, 0.0260
302, 0.0215
303, 0.0177
304, 0.0139
305, 0.0113
306, 0.0091
307, 0.0075
308, 0.0060
309, 0.0047
310, 0.0036
311, 0.0026
312, 0.0022
313, 0.0019
314, 0.0028
315, 0.0010
316, 0.0013
317, 0.0013
318, 0.0006
319, 0.0012
320, 0.0011
321, 0.0002
322, 0.0011
323, 0.0005
324, 0.0006
325, 0.0008
326, 0.0006
327, 0.0008
328, 0.0013
329, 0.0008
330, 0.0009
331, 0.0010
332, 0.0005
333, 0.0010
334, 0.0009
335, 0.0006
336, 0.0014
337, 0.0003
338, 0.0014
339, 0.0004
340, 0.0006
341, 0.0014
342, 0.0014
343, 0.0010
344, 0.0002
345, 0.0008
346, 0.0007
347, 0.0004
348, -0.0000
349, 0.0004
350, 0.0015
351, -0.0001
352, 0.0004
353, 0.0004
354, 0.0014
355, 0.0002
356, 0.0004
357, -0.0002
358, 0.0005
359, -0.0002
360, 0.0010
361, 0.0002
362, 0.0009
363, -0.0001
364, 0.0009
365, 0.0004
366, -0.0007
367, 0.0002
368, 0.0009
369, 0.0003
370, 0.0005
371, 0.0005
372, 0.0009
373, 0.0001
374, 0.0008
375, 0.0009
376, 0.0002
377, 0.0004
378, 0.0005
379, 0.0012
380, 0.0006
381, 0.0012
382, 0.0006
383, 0.0008
384, 0.0014
385, 0.0005
386, 0.0013
387, 0.0013
388, 0.0007
389, 0.0004
390, 0.0006
391, 0.0005
392, 0.0004
393, 0.0005
394, 0.0007
395, 0.0011
396, 0.0011
397, 0.0011
398, 0.0006
399, 0.0008
400, 0.0007
##END=
##TITLE=D17 PAR 8 CAF 7.5 ASA 18
##JCAMP-DX=4.24
##DATA TYPE=UV/VIS SPECTRUM
##ORIGIN=Spectro demo data (simulated)
##OWNER=public domain
##XUNITS=NANOMETERS
##YUNITS=ABSORBANCE
##XFACTOR=1
##YFACTOR=1
##FIRSTX=200
##LASTX=400
##NPOINTS=201
##XYPOINTS=(XY..XY)
200, 2.8822
201, 2.9808
202, 3.0416
203, 3.0327
204, 2.9999
205, 2.9108
206, 2.8051
207, 2.6641
208, 2.4973
209, 2.2958
210, 2.1130
211, 1.9288
212, 1.7646
213, 1.6033
214, 1.4579
215, 1.3426
216, 1.2563
217, 1.1858
218, 1.1352
219, 1.1115
220, 1.0923
221, 1.0978
222, 1.1132
223, 1.1370
224, 1.1639
225, 1.1883
226, 1.2163
227, 1.2430
228, 1.2681
229, 1.2780
230, 1.2841
231, 1.2856
232, 1.2803
233, 1.2676
234, 1.2469
235, 1.2174
236, 1.1887
237, 1.1466
238, 1.1073
239, 1.0610
240, 1.0160
241, 0.9717
242, 0.9228
243, 0.8834
244, 0.8363
245, 0.7944
246, 0.7563
247, 0.7188
248, 0.6853
249, 0.6533
250, 0.6293
251, 0.6008
252, 0.5773
253, 0.5588
254, 0.5393
255, 0.5255
256, 0.5124
257, 0.5020
258, 0.4941
259, 0.4918
260, 0.4901
261, 0.4873
262, 0.4904
263, 0.4916
264, 0.4951
265, 0.5022
266, 0.5071
267, 0.5153
268, 0.5205
269, 0.5280
270, 0.5283
271, 0.5357
272, 0.5371
273, 0.5342
274, 0.5328
275, 0.5285
276, 0.5160
277, 0.5088
278, 0.4901
279, 0.4737
280, 0.4563
281, 0.4341
282, 0.4116
283, 0.3853
284, 0.3592
285, 0.3320
286, 0.3045
287, 0.2809
288, 0.2529
289, 0.2277
290, 0.2044
291, 0.1798
292, 0.1572
293, 0.1388
294, 0.1211
295, 0.1034
296, 0.0888
297, 0.0757
298, 0.0631
299, 0.0535
300, 0.0444
301, 0.0376
302, 0.0302
303, 0.0256
304, 0.0209
305, 0.0170
306, 0.0138
307, 0.0104
308, 0.0081
309, 0.0071
310, 0.0059
311, 0.0050
312, 0.0033
313, 0.0031
314, 0.0024
315, 0.0022
316, 0.0018
317, 0.0014
318, 0.0021
319, 0.0005
320, 0.0013
321, 0.0013
322, 0.0008
323, 0.0010
324, 0.0016
325, 0.0010
326, 0.0008
327, 0.0011
328, 0.0012
329, 0.0006
330, 0.0011
331, 0.0010
332, 0.0016
333, 0.0009
334, 0.0010
335, 0.0010
336, 0.0001
337, 0.0001
338, 0.0019
339, 0.0005
340, 0.0010
341, 0.0013
342, 0.0013
343, 0.0011
344, 0.0004
345, 0.0018
346, 0.0014
347, 0.0008
348, 0.0007
349, 0.0004
350, 0.0007
351, 0.0019
352, 0.0011
353, 0.0008
354, 0.0009
355, 0.0009
356, -0.0002
357, 0.0011
358, 0.0011
359, 0.0010
360, 0.0006
361, 0.0010
362, 0.0006
363, 0.0014
364, 0.0009
365, 0.0003
366, 0.0013
367, 0.0010
368, 0.0008
369, 0.0012
370, 0.0011
371, 0.0009
372, 0.0010
373, 0.0018
374, 0.0015
375, 0.0010
376, 0.0012
377, 0.0011
378, 0.0009
379, 0.0010
380, 0.0012
381, 0.0018
382, 0.0015
383, 0.0003
384, 0.0009
385, 0.0012
386, 0.0012
387, 0.0010
388, 0.0013
389, 0.0014
390, 0.0019
391, 0.0017
392, 0.0003
393, 0.0014
394, 0.0014
395, 0.0012
396, 0.0008
397, 0.0015
398, 0.0010
399, 0.0009
400, 0.0008
##END=
##TITLE=D18 PAR 12 CAF 9 ASA 15
##JCAMP-DX=4.24
##DATA TYPE=UV/VIS SPECTRUM
##ORIGIN=Spectro demo data (simulated)
##OWNER=public domain
##XUNITS=NANOMETERS
##YUNITS=ABSORBANCE
##XFACTOR=1
##YFACTOR=1
##FIRSTX=200
##LASTX=400
##NPOINTS=201
##XYPOINTS=(XY..XY)
200, 3.0865
201, 3.1983
202, 3.2486
203, 3.2720
204, 3.2028
205, 3.1187
206, 3.0107
207, 2.8587
208, 2.6790
209, 2.4864
210, 2.2889
211, 2.0913
212, 1.9038
213, 1.7385
214, 1.5960
215, 1.4590
216, 1.3552
217, 1.2700
218, 1.2061
219, 1.1688
220, 1.1449
221, 1.1314
222, 1.1395
223, 1.1615
224, 1.1824
225, 1.2133
226, 1.2436
227, 1.2719
228, 1.2960
229, 1.3214
230, 1.3398
231, 1.3535
232, 1.3540
233, 1.3574
234, 1.3457
235, 1.3346
236, 1.3114
237, 1.2957
238, 1.2715
239, 1.2388
240, 1.2073
241, 1.1646
242, 1.1378
243, 1.0990
244, 1.0635
245, 1.0306
246, 0.9942
247, 0.9584
248, 0.9186
249, 0.8936
250, 0.8608
251, 0.8284
252, 0.8006
253, 0.7775
254, 0.7518
255, 0.7303
256, 0.7097
257, 0.6888
258, 0.6793
259, 0.6670
260, 0.6540
261, 0.6494
262, 0.6424
263, 0.6408
264, 0.6382
265, 0.6375
266, 0.6378
267, 0.6401
268, 0.6409
269, 0.6396
270, 0.6388
271, 0.6370
272, 0.6359
273, 0.6310
274, 0.6222
275, 0.6132
276, 0.6031
277, 0.5866
278, 0.5672
279, 0.5482
280, 0.5245
281, 0.4980
282, 0.4724
283, 0.4427
284, 0.4138
285, 0.3824
286, 0.3528
287, 0.3230
288, 0.2938
289, 0.2655
290, 0.2375
291, 0.2104
292, 0.1863
293, 0.1641
294, 0.1420
295, 0.1234
296, 0.1056
297, 0.0903
298, 0.0773
299, 0.0643
300, 0.0537
301, 0.0451
302, 0.0368
303, 0.0298
304, 0.0240
305, 0.0208
306, 0.0154
307, 0.0120
308, 0.0095
309, 0.0077
310, 0.0060
311, 0.0052
312, 0.0032
313, 0.0021
314, 0.0017
315, 0.0024
316, 0.0010
317, 0.0015
318, 0.0006
319, 0.0004
320, 0.0001
321, -0.0000
322, 0.0001
323, 0.0003
324, 0.0005
325, 0.0000
326, 0.0004
327, 0.0000
328, 0.0001
329, 0.0004
330, 0.0005
331, 0.0007
332, 0.0003
333, 0.0005
334, 0.0001
335, 0.0006
336, -0.0000
337, -0.0001
338, 0.0005
339, -0.0002
340, 0.0001
341, 0.0004
342, 0.0002
343, -0.0000
344, 0.0010
345, 0.0004
346, -0.0005
347, 0.0004
348, -0.0003
349, 0.0007
350, -0.0001
351, 0.0008
352, -0.0003
353, 0.0000
354, -0.0002
355, -0.0001
356, 0.0002
357, 0.0008
358, -0.0003
359, -0.0005
360, -0.0000
361, 0.0004
362, 0.0001
363, 0.0002
364, -0.0001
365, 0.0002
366, 0.0005
367, 0.0003
368, -0.0002
369, -0.0002
370, 0.0006
371, -0.0000
372, 0.0001
373, 0.0003
374, -0.0001
375, 0.0005
376, -0.0001
377, 0.0011
378, -0.0005
379, 0.0003
380, 0.0003
381, 0.0000
382, 0.0006
383, 0.0002
384, 0.0007
385, 0.0003
386, 0.0004
387, -0.0001
388, -0.0001
389, 0.0005
390, 0.0005
391, 0.0001
392, 0.0011
393, 0.0002
394, 0.0001
395, -0.0003
396, 0.0004
397, 0.0004
398, -0.0000
399, 0.0003
400, 0.0000
##END=
##TITLE=D19 PAR 14 CAF 7.5 ASA 12
##JCAMP-DX=4.24
##DATA TYPE=UV/VIS SPECTRUM
##ORIGIN=Spectro demo data (simulated)
##OWNER=public domain
##XUNITS=NANOMETERS
##YUNITS=ABSORBANCE
##XFACTOR=1
##YFACTOR=1
##FIRSTX=200
##LASTX=400
##NPOINTS=201
##XYPOINTS=(XY..XY)
200, 2.8591
201, 2.9601
202, 3.0141
203, 3.0190
204, 2.9971
205, 2.8985
206, 2.8027
207, 2.6518
208, 2.4887
209, 2.3101
210, 2.1155
211, 1.9341
212, 1.7745
213, 1.6002
214, 1.4705
215, 1.3343
216, 1.2434
217, 1.1564
218, 1.1004
219, 1.0613
220, 1.0409
221, 1.0343
222, 1.0390
223, 1.0579
224, 1.0786
225, 1.1080
226, 1.1442
227, 1.1796
228, 1.2114
229, 1.2379
230, 1.2648
231, 1.2903
232, 1.3152
233, 1.3213
234, 1.3284
235, 1.3321
236, 1.3244
237, 1.3163
238, 1.2954
239, 1.2854
240, 1.2579
241, 1.2347
242, 1.2117
243, 1.1788
244, 1.1610
245, 1.1241
246, 1.0842
247, 1.0536
248, 1.0227
249, 0.9917
250, 0.9553
251, 0.9210
252, 0.8869
253, 0.8584
254, 0.8255
255, 0.7942
256, 0.7697
257, 0.7420
258, 0.7158
259, 0.6977
260, 0.6744
261, 0.6583
262, 0.6471
263, 0.6293
264, 0.6177
265, 0.6091
266, 0.6006
267, 0.5950
268, 0.5923
269, 0.5875
270, 0.5767
271, 0.5726
272, 0.5664
273, 0.5608
274, 0.5509
275, 0.5401
276, 0.5294
277, 0.5138
278, 0.4954
279, 0.4793
280, 0.4618
281, 0.4415
282, 0.4155
283, 0.3914
284, 0.3665
285, 0.3393
286, 0.3143
287, 0.2888
288, 0.2646
289, 0.2410
290, 0.2163
291, 0.1928
292, 0.1718
293, 0.1495
294, 0.1321
295, 0.1151
296, 0.0992
297, 0.0861
298, 0.0718
299, 0.0625
300, 0.0513
301, 0.0422
302, 0.0359
303, 0.0294
304, 0.0239
305, 0.0194
306, 0.0154
307, 0.0127
308, 0.0104
309, 0.0086
310, 0.0064
311, 0.0049
312, 0.0032
313, 0.0035
314, 0.0027
315, 0.0019
316, 0.0014
317, 0.0006
318, 0.0008
319, 0.0008
320, 0.0011
321, 0.0006
322, 0.0010
323, 0.0007
324, 0.0006
325, 0.0008
326, 0.0008
327, 0.0010
328, 0.0009
329, 0.0001
330, 0.0001
331, -0.0001
332, 0.0001
333, 0.0001
334, 0.0004
335, 0.0005
336, 0.0005
337, 0.0004
338, 0.0002
339, 0.0002
340, -0.0002
341, 0.0009
342, 0.0008
343, 0.0001
344, 0.0005
345, 0.0007
346, 0.0001
347, 0.0008
348, 0.0008
349, 0.0001
350, 0.0007
351, 0.0005
352, 0.0006
353, 0.0006
354, -0.0006
355, 0.0005
356, 0.0013
357, 0.0002
358, 0.0010
359, 0.0007
360, 0.0001
361, 0.0011
362, 0.0003
363, 0.0006
364, 0.0002
365, 0.0010
366, 0.0004
367, 0.0007
368, 0.0006
369, 0.0009
370, -0.0001
371, 0.0005
372, 0.0007
373, 0.0003
374, 0.0003
375, 0.0002
376, 0.0001
377, 0.0011
378, 0.0001
379, 0.0007
380, 0.0003
381, 0.0005
382, -0.0002
383, 0.0001
384, 0.0008
385, -0.0001
386, 0.0001
387, 0.0004
388, 0.0008
389, 0.0004
390, 0.0017
391, 0.0007
392, 0.0009
393, 0.0009
394, 0.0001
395, 0.0005
396, 0.0006
397, 0.0006
398, 0.0011
399, 0.0010
400, 0.0010
##END=
##TITLE=D20 PAR 12 CAF 6 ASA 18
##JCAMP-DX=4.24
##DATA TYPE=UV/VIS SPECTRUM
##ORIGIN=Spectro demo data (simulated)
##OWNER=public domain
##XUNITS=NANOMETERS
##YUNITS=ABSORBANCE
##XFACTOR=1
##YFACTOR=1
##FIRSTX=200
##LASTX=400
##NPOINTS=201
##XYPOINTS=(XY..XY)
200, 3.1008
201, 3.1744
202, 3.2185
203, 3.2156
204, 3.1675
205, 3.0679
206, 2.9432
207, 2.7811
208, 2.5976
209, 2.3772
210, 2.1836
211, 1.9902
212, 1.7988
213, 1.6330
214, 1.4970
215, 1.3743
216, 1.2786
217, 1.2144
218, 1.1623
219, 1.1534
220, 1.1424
221, 1.1554
222, 1.1770
223, 1.2089
224, 1.2470
225, 1.2838
226, 1.3267
227, 1.3665
228, 1.4000
229, 1.4232
230, 1.4445
231, 1.4627
232, 1.4666
233, 1.4659
234, 1.4542
235, 1.4383
236, 1.4170
237, 1.3859
238, 1.3602
239, 1.3186
240, 1.2727
241, 1.2361
242, 1.1919
243, 1.1457
244, 1.1037
245, 1.0590
246, 1.0134
247, 0.9719
248, 0.9318
249, 0.8918
250, 0.8530
251, 0.8157
252, 0.7817
253, 0.7520
254, 0.7166
255, 0.6890
256, 0.6610
257, 0.6356
258, 0.6131
259, 0.5936
260, 0.5753
261, 0.5626
262, 0.5491
263, 0.5396
264, 0.5287
265, 0.5245
266, 0.5159
267, 0.5173
268, 0.5096
269, 0.5082
270, 0.5062
271, 0.5064
272, 0.4975
273, 0.4943
274, 0.4903
275, 0.4816
276, 0.4720
277, 0.4626
278, 0.4482
279, 0.4334
280, 0.4171
281, 0.3962
282, 0.3762
283, 0.3534
284, 0.3312
285, 0.3056
286, 0.2810
287, 0.2599
288, 0.2355
289, 0.2126
290, 0.1907
291, 0.1704
292, 0.1508
293, 0.1315
294, 0.1154
295, 0.0999
296, 0.0855
297, 0.0731
298, 0.0616
299, 0.0511
300, 0.0437
301, 0.0367
302, 0.0296
303, 0.0243
304, 0.0199
305, 0.0159
306, 0.0129
307, 0.0099
308, 0.0077
309, 0.0060
310, 0.0048
311, 0.0033
312, 0.0027
313, 0.0020
314, 0.0020
315, 0.0012
316, 0.0012
317, 0.0013
318, 0.0004
319, 0.0011
320, 0.0005
321, 0.0002
322, 0.0011
323, -0.0004
324, 0.0010
325, 0.0002
326, -0.0003
327, 0.0001
328, 0.0010
329, 0.0002
330, 0.0005
331, 0.0000
332, 0.0007
333, 0.0002
334, 0.0001
335, -0.0002
336, -0.0007
337, 0.0007
338, 0.0012
339, 0.0002
340, 0.0008
341, -0.0001
342, 0.0004
343, 0.0003
344, 0.0007
345, 0.0005
346, 0.0002
347, 0.0000
348, 0.0011
349, -0.0004
350, 0.0007
351, -0.0003
352, -0.0001
353, -0.0001
354, 0.0004
355, 0.0002
356, 0.0003
357, 0.0000
358, -0.0003
359, -0.0001
360, 0.0008
361, 0.0006
362, -0.0002
363, 0.0004
364, 0.0002
365, 0.0009
366, 0.0004
367, 0.0002
368, 0.0000
369, 0.0006
370, 0.0000
371, 0.0007
372, 0.0001
373, 0.0006
374, 0.0002
375, 0.0003
376, 0.0003
377, 0.0007
378, 0.0008
379, 0.0005
380, 0.0011
381, 0.0001
382, 0.0005
383, 0.0004
384, 0.0002
385, 0.0004
386, 0.0009
387, 0.0009
388, 0.0002
389, 0.0003
390, 0.0005
391, 0.0008
392, 0.0005
393, 0.0007
394, 0.0003
395, 0.0004
396, 0.0002
397, 0.0018
398, 0.0002
399, -0.0002
400, 0.0006
##END=
##TITLE=D21 PAR 10 CAF 9 ASA 18
##JCAMP-DX=4.24
##DATA TYPE=UV/VIS SPECTRUM
##ORIGIN=Spectro demo data (simulated)
##OWNER=public domain
##XUNITS=NANOMETERS
##YUNITS=ABSORBANCE
##XFACTOR=1
##YFACTOR=1
##FIRSTX=200
##LASTX=400
##NPOINTS=201
##XYPOINTS=(XY..XY)
200, 3.1675
201, 3.2837
202, 3.3296
203, 3.3443
204, 3.3147
205, 3.2293
206, 3.1337
207, 2.9695
208, 2.7909
209, 2.5878
210, 2.3860
211, 2.1875
212, 2.0021
213, 1.8193
214, 1.6643
215, 1.5253
216, 1.4174
217, 1.3341
218, 1.2639
219, 1.2267
220, 1.2043
221, 1.1977
222, 1.2054
223, 1.2220
224, 1.2534
225, 1.2782
226, 1.3081
227, 1.3334
228, 1.3654
229, 1.3778
230, 1.3929
231, 1.3996
232, 1.4005
233, 1.3878
234, 1.3681
235, 1.3493
236, 1.3240
237, 1.2877
238, 1.2491
239, 1.2109
240, 1.1612
241, 1.1213
242, 1.0752
243, 1.0296
244, 0.9875
245, 0.9449
246, 0.9042
247, 0.8693
248, 0.8303
249, 0.7947
250, 0.7642
251, 0.7357
252, 0.7115
253, 0.6890
254, 0.6655
255, 0.6469
256, 0.6325
257, 0.6180
258, 0.6113
259, 0.6019
260, 0.5982
261, 0.5944
262, 0.5942
263, 0.5945
264, 0.6029
265, 0.6034
266, 0.6077
267, 0.6156
268, 0.6184
269, 0.6255
270, 0.6298
271, 0.6311
272, 0.6316
273, 0.6295
274, 0.6244
275, 0.6189
276, 0.6076
277, 0.5919
278, 0.5766
279, 0.5582
280, 0.5346
281, 0.5093
282, 0.4814
283, 0.4535
284, 0.4237
285, 0.3927
286, 0.3609
287, 0.3289
288, 0.2996
289, 0.2715
290, 0.2424
291, 0.2146
292, 0.1894
293, 0.1657
294, 0.1437
295, 0.1248
296, 0.1066
297, 0.0913
298, 0.0769
299, 0.0651
300, 0.0553
301, 0.0457
302, 0.0374
303, 0.0302
304, 0.0254
305, 0.0198
306, 0.0169
307, 0.0131
308, 0.0101
309, 0.0081
310, 0.0067
311, 0.0048
312, 0.0043
313, 0.0023
314, 0.0025
315, 0.0017
316, 0.0020
317, 0.0013
318, 0.0005
319, 0.0013
320, 0.0012
321, 0.0011
322, 0.0013
323, 0.0002
324, 0.0007
325, 0.0000
326, 0.0007
327, 0.0002
328, 0.0003
329, 0.0011
330, 0.0004
331, 0.0001
332, -0.0002
333, 0.0002
334, 0.0002
335, 0.0009
336, 0.0005
337, -0.0002
338, 0.0002
339, 0.0006
340, 0.0003
341, 0.0005
342, 0.0007
343, 0.0000
344, 0.0004
345, 0.0010
346, 0.0001
347, 0.0005
348, -0.0000
349, 0.0007
350, 0.0006
351, 0.0007
352, 0.0005
353, 0.0002
354, -0.0000
355, 0.0001
356, -0.0005
357, 0.0011
358, 0.0003
359, -0.0003
360, 0.0010
361, 0.0007
362, 0.0009
363, 0.0002
364, 0.0003
365, 0.0010
366, 0.0003
367, 0.0006
368, 0.0007
369, 0.0001
370, 0.0005
371, 0.0001
372, 0.0009
373, 0.0007
374, 0.0012
375, 0.0003
376, 0.0008
377, -0.0002
378, 0.0008
379, 0.0003
380, 0.0004
381, 0.0003
382, 0.0006
383, 0.0006
384, 0.0005
385, 0.0009
386, 0.0003
387, 0.0006
388, 0.0006
389, 0.0007
390, 0.0008
391, 0.0014
392, 0.0006
393, 0.0003
394, 0.0010
395, 0.0008
396, 0.0009
397, 0.0003
398, 0.0005
399, 0.0007
400, 0.0011
##END=
##TITLE=D22 PAR 14 CAF 9 ASA 6
##JCAMP-DX=4.24
##DATA TYPE=UV/VIS SPECTRUM
##ORIGIN=Spectro demo data (simulated)
##OWNER=public domain
##XUNITS=NANOMETERS
##YUNITS=ABSORBANCE
##XFACTOR=1
##YFACTOR=1
##FIRSTX=200
##LASTX=400
##NPOINTS=201
##XYPOINTS=(XY..XY)
200, 2.4599
201, 2.5596
202, 2.5846
203, 2.6091
204, 2.5928
205, 2.5312
206, 2.4533
207, 2.3483
208, 2.2081
209, 2.0692
210, 1.9152
211, 1.7657
212, 1.6265
213, 1.4878
214, 1.3426
215, 1.2219
216, 1.1261
217, 1.0312
218, 0.9656
219, 0.9169
220, 0.8722
221, 0.8563
222, 0.8354
223, 0.8420
224, 0.8482
225, 0.8677
226, 0.8870
227, 0.9131
228, 0.9393
229, 0.9631
230, 0.9935
231, 1.0180
232, 1.0339
233, 1.0601
234, 1.0773
235, 1.0886
236, 1.1027
237, 1.1049
238, 1.1066
239, 1.1067
240, 1.0972
241, 1.0920
242, 1.0802
243, 1.0721
244, 1.0539
245, 1.0438
246, 1.0224
247, 0.9996
248, 0.9753
249, 0.9553
250, 0.9290
251, 0.9019
252, 0.8779
253, 0.8551
254, 0.8279
255, 0.8071
256, 0.7838
257, 0.7578
258, 0.7427
259, 0.7206
260, 0.7092
261, 0.6929
262, 0.6820
263, 0.6753
264, 0.6633
265, 0.6562
266, 0.6460
267, 0.6410
268, 0.6372
269, 0.6320
270, 0.6230
271, 0.6184
272, 0.6126
273, 0.6019
274, 0.5919
275, 0.5808
276, 0.5656
277, 0.5490
278, 0.5298
279, 0.5130
280, 0.4904
281, 0.4673
282, 0.4400
283, 0.4167
284, 0.3890
285, 0.3625
286, 0.3361
287, 0.3075
288, 0.2808
289, 0.2532
290, 0.2302
291, 0.2037
292, 0.1815
293, 0.1610
294, 0.1414
295, 0.1227
296, 0.1063
297, 0.0915
298, 0.0767
299, 0.0656
300, 0.0550
301, 0.0461
302, 0.0374
303, 0.0305
304, 0.0253
305, 0.0195
306, 0.0165
307, 0.0132
308, 0.0095
309, 0.0075
310, 0.0056
311, 0.0036
312, 0.0032
313, 0.0017
314, 0.0013
315, 0.0014
316, 0.0006
317, 0.0007
318, -0.0002
319, -0.0002
320, -0.0003
321, -0.0005
322, -0.0010
323, -0.0005
324, -0.0009
325, 0.0001
326, -0.0016
327, 0.0002
328, -0.0006
329, -0.0005
330, -0.0011
331, -0.0005
332, -0.0011
333, -0.0003
334, -0.0007
335, -0.0006
336, -0.0004
337, -0.0007
338, -0.0002
339, -0.0005
340, -0.0004
341, -0.0006
342, -0.0003
343, -0.0001
344, -0.0005
345, -0.0005
346, -0.0004
347, -0.0005
348, -0.0008
349, -0.0010
350, -0.0005
351, -0.0013
352, -0.0002
353, -0.0007
354, -0.0011
355, -0.0006
356, -0.0011
357, -0.0002
358, -0.0009
359, -0.0004
360, -0.0001
361, -0.0003
362, -0.0003
363, -0.0007
364, -0.0002
365, -0.0009
366, -0.0007
367, -0.0009
368, -0.0005
369, -0.0003
370, -0.0001
371, -0.0002
372, -0.0008
373, -0.0006
374, -0.0010
375, -0.0012
376, -0.0008
377, -0.0012
378, -0.0010
379, -0.0005
380, -0.0001
381, -0.0006
382, -0.0007
383, 0.0004
384, -0.0009
385, -0.0007
386, 0.0001
387, -0.0007
388, -0.0005
389, -0.0003
390, -0.0003
391, -0.0009
392, -0.0003
393, -0.0002
394, -0.0007
395, -0.0005
396, -0.0003
397, -0.0007
398, -0.0012
399, -0.0011
400, -0.0004
##END=
##TITLE=D23 PAR 14 CAF 3 ASA 15
##JCAMP-DX=4.24
##DATA TYPE=UV/VIS SPECTRUM
##ORIGIN=Spectro demo data (simulated)
##OWNER=public domain
##XUNITS=NANOMETERS
##YUNITS=ABSORBANCE
##XFACTOR=1
##YFACTOR=1
##FIRSTX=200
##LASTX=400
##NPOINTS=201
##XYPOINTS=(XY..XY)
200, 2.7486
201, 2.8246
202, 2.8645
203, 2.8453
204, 2.7926
205, 2.6749
206, 2.5357
207, 2.3858
208, 2.2145
209, 2.0256
210, 1.8423
211, 1.6743
212, 1.5021
213, 1.3620
214, 1.2368
215, 1.1426
216, 1.0651
217, 1.0165
218, 0.9819
219, 0.9763
220, 0.9837
221, 1.0000
222, 1.0323
223, 1.0731
224, 1.1150
225, 1.1640
226, 1.2129
227, 1.2544
228, 1.2947
229, 1.3321
230, 1.3669
231, 1.3869
232, 1.4023
233, 1.4123
234, 1.4181
235, 1.4136
236, 1.4067
237, 1.3948
238, 1.3711
239, 1.3457
240, 1.3155
241, 1.2898
242, 1.2555
243, 1.2193
244, 1.1760
245, 1.1380
246, 1.0985
247, 1.0553
248, 1.0122
249, 0.9699
250, 0.9269
251, 0.8878
252, 0.8452
253, 0.8042
254, 0.7647
255, 0.7246
256, 0.6903
257, 0.6537
258, 0.6153
259, 0.5839
260, 0.5550
261, 0.5234
262, 0.4994
263, 0.4751
264, 0.4548
265, 0.4367
266, 0.4197
267, 0.4063
268, 0.3933
269, 0.3828
270, 0.3736
271, 0.3618
272, 0.3585
273, 0.3501
274, 0.3429
275, 0.3335
276, 0.3252
277, 0.3175
278, 0.3075
279, 0.2958
280, 0.2846
281, 0.2746
282, 0.2576
283, 0.2441
284, 0.2296
285, 0.2153
286, 0.1995
287, 0.1845
288, 0.1684
289, 0.1530
290, 0.1381
291, 0.1240
292, 0.1100
293, 0.0986
294, 0.0873
295, 0.0742
296, 0.0656
297, 0.0569
298, 0.0485
299, 0.0407
300, 0.0345
301, 0.0285
302, 0.0248
303, 0.0199
304, 0.0161
305, 0.0139
306, 0.0111
307, 0.0091
308, 0.0076
309, 0.0059
310, 0.0053
311, 0.0046
312, 0.0031
313, 0.0023
314, 0.0026
315, 0.0027
316, 0.0022
317, 0.0016
318, 0.0027
319, 0.0007
320, 0.0015
321, 0.0007
322, 0.0014
323, 0.0014
324, 0.0011
325, 0.0009
326, 0.0009
327, 0.0008
328, 0.0011
329, 0.0006
330, 0.0010
331, 0.0008
332, -0.0000
333, 0.0008
334, 0.0009
335, 0.0011
336, 0.0004
337, 0.0014
338, 0.0005
339, 0.0011
340, 0.0006
341, 0.0009
342, 0.0006
343, 0.0009
344, 0.0015
345, 0.0011
346, 0.0010
347, 0.0008
348, 0.0010
349, 0.0001
350, -0.0001
351, 0.0005
352, 0.0012
353, 0.0017
354, 0.0001
355, 0.0000
356, 0.0004
357, 0.0002
358, 0.0010
359, 0.0003
360, 0.0013
361, 0.0017
362, 0.0005
363, 0.0010
364, 0.0005
365, 0.0011
366, 0.0002
367, 0.0012
368, 0.0005
369, 0.0010
370, 0.0006
371, 0.0015
372, 0.0011
373, 0.0007
374, 0.0008
375, 0.0004
376, 0.0014
377, 0.0024
378, 0.0015
379, 0.0008
380, 0.0009
381, 0.0006
382, 0.0015
383, 0.0013
384, 0.0014
385, 0.0012
386, 0.0005
387, 0.0011
388, 0.0010
389, 0.0008
390, 0.0007
391, -0.0000
392, -0.0000
393, 0.0013
394, 0.0020
395, 0.0006
396, 0.0005
397, 0.0002
398, 0.0015
399, 0.0005
400, 0.0004
##END=
##TITLE=D24 PAR 6 CAF 7.5 ASA 6
##JCAMP-DX=4.24
##DATA TYPE=UV/VIS SPECTRUM
##ORIGIN=Spectro demo data (simulated)
##OWNER=public domain
##XUNITS=NANOMETERS
##YUNITS=ABSORBANCE
##XFACTOR=1
##YFACTOR=1
##FIRSTX=200
##LASTX=400
##NPOINTS=201
##XYPOINTS=(XY..XY)
200, 1.6830
201, 1.7190
202, 1.7782
203, 1.7821
204, 1.7824
205, 1.7565
206, 1.7177
207, 1.6299
208, 1.5590
209, 1.4652
210, 1.3616
211, 1.2596
212, 1.1579
213, 1.0568
214, 0.9681
215, 0.8850
216, 0.8079
217, 0.7485
218, 0.7030
219, 0.6580
220, 0.6287
221, 0.6096
222, 0.5975
223, 0.5902
224, 0.5903
225, 0.5978
226, 0.5994
227, 0.6058
228, 0.6158
229, 0.6220
230, 0.6291
231, 0.6328
232, 0.6378
233, 0.6353
234, 0.6344
235, 0.6296
236, 0.6229
237, 0.6113
238, 0.6032
239, 0.5922
240, 0.5790
241, 0.5651
242, 0.5520
243, 0.5378
244, 0.5201
245, 0.5092
246, 0.4977
247, 0.4820
248, 0.4704
249, 0.4592
250, 0.4461
251, 0.4396
252, 0.4294
253, 0.4223
254, 0.4156
255, 0.4131
256, 0.4103
257, 0.4070
258, 0.4071
259, 0.4064
260, 0.4094
261, 0.4130
262, 0.4171
263, 0.4237
264, 0.4259
265, 0.4345
266, 0.4415
267, 0.4473
268, 0.4503
269, 0.4556
270, 0.4559
271, 0.4613
272, 0.4589
273, 0.4572
274, 0.4523
275, 0.4470
276, 0.4388
277, 0.4272
278, 0.4156
279, 0.3994
280, 0.3828
281, 0.3627
282, 0.3442
283, 0.3222
284, 0.3009
285, 0.2774
286, 0.2569
287, 0.2352
288, 0.2127
289, 0.1926
290, 0.1721
291, 0.1536
292, 0.1362
293, 0.1199
294, 0.1039
295, 0.0890
296, 0.0767
297, 0.0649
298, 0.0555
299, 0.0469
300, 0.0392
301, 0.0320
302, 0.0267
303, 0.0214
304, 0.0180
305, 0.0136
306, 0.0115
307, 0.0091
308, 0.0078
309, 0.0053
310, 0.0040
311, 0.0035
312, 0.0031
313, 0.0015
314, 0.0016
315, 0.0016
316, 0.0004
317, 0.0011
318, 0.0005
319, 0.0004
320, 0.0002
321, 0.0001
322, -0.0004
323, 0.0001
324, 0.0004
325, -0.0002
326, -0.0002
327, -0.0006
328, -0.0000
329, 0.0005
330, 0.0008
331, 0.0005
332, -0.0007
333, -0.0004
334, 0.0002
335, -0.0004
336, -0.0002
337, 0.0002
338, 0.0003
339, -0.0006
340, -0.0000
341, -0.0005
342, -0.0002
343, -0.0000
344, -0.0002
345, -0.0001
346, -0.0004
347, -0.0003
348, -0.0003
349, -0.0004
350, 0.0001
351, -0.0001
352, -0.0000
353, 0.0003
354, -0.0001
355, -0.0003
356, 0.0000
357, -0.0000
358, -0.0006
359, 0.0003
360, 0.0005
361, 0.0002
362, -0.0005
363, -0.0002
364, 0.0003
365, -0.0005
366, 0.0000
367, -0.0002
368, -0.0003
369, -0.0008
370, -0.0002
371, 0.0002
372, 0.0001
373, 0.0005
374, 0.0002
375, 0.0003
376, -0.0000
377, 0.0004
378, -0.0001
379, -0.0005
380, -0.0008
381, 0.0005
382, -0.0005
383, -0.0002
384, -0.0007
385, -0.0003
386, -0.0001
387, 0.0001
388, -0.0002
389, -0.0003
390, -0.0004
391, -0.0006
392, -0.0004
393, -0.0009
394, -0.0003
395, -0.0005
396, 0.0000
397, -0.0003
398, 0.0001
399, -0.0002
400, -0.0003
##END=
##TITLE=D25 PAR 12 CAF 3 ASA 12
##JCAMP-DX=4.24
##DATA TYPE=UV/VIS SPECTRUM
##ORIGIN=Spectro demo data (simulated)
##OWNER=public domain
##XUNITS=NANOMETERS
##YUNITS=ABSORBANCE
##XFACTOR=1
##YFACTOR=1
##FIRSTX=200
##LASTX=400
##NPOINTS=201
##XYPOINTS=(XY..XY)
200, 2.3393
201, 2.3697
202, 2.3966
203, 2.4057
204, 2.3503
205, 2.2693
206, 2.1573
207, 2.0344
208, 1.8838
209, 1.7310
210, 1.5792
211, 1.4277
212, 1.2894
213, 1.1744
214, 1.0646
215, 0.9777
216, 0.9148
217, 0.8634
218, 0.8374
219, 0.8211
220, 0.8226
221, 0.8350
222, 0.8579
223, 0.8887
224, 0.9261
225, 0.9615
226, 1.0000
227, 1.0380
228, 1.0687
229, 1.1031
230, 1.1257
231, 1.1506
232, 1.1607
233, 1.1783
234, 1.1821
235, 1.1814
236, 1.1737
237, 1.1619
238, 1.1548
239, 1.1367
240, 1.1127
241, 1.0842
242, 1.0641
243, 1.0349
244, 1.0045
245, 0.9720
246, 0.9338
247, 0.9018
248, 0.8654
249, 0.8327
250, 0.7989
251, 0.7640
252, 0.7307
253, 0.6932
254, 0.6643
255, 0.6339
256, 0.5992
257, 0.5681
258, 0.5423
259, 0.5127
260, 0.4883
261, 0.4653
262, 0.4446
263, 0.4240
264, 0.4042
265, 0.3927
266, 0.3788
267, 0.3667
268, 0.3553
269, 0.3471
270, 0.3409
271, 0.3305
272, 0.3250
273, 0.3188
274, 0.3120
275, 0.3056
276, 0.2960
277, 0.2889
278, 0.2792
279, 0.2720
280, 0.2584
281, 0.2462
282, 0.2365
283, 0.2242
284, 0.2115
285, 0.1953
286, 0.1824
287, 0.1686
288, 0.1538
289, 0.1392
290, 0.1269
291, 0.1142
292, 0.1016
293, 0.0898
294, 0.0780
295, 0.0694
296, 0.0603
297, 0.0526
298, 0.0449
299, 0.0383
300, 0.0324
301, 0.0275
302, 0.0233
303, 0.0200
304, 0.0159
305, 0.0137
306, 0.0111
307, 0.0096
308, 0.0080
309, 0.0068
310, 0.0053
311, 0.0054
312, 0.0045
313, 0.0042
314, 0.0028
315, 0.0028
316, 0.0032
317, 0.0025
318, 0.0019
319, 0.0023
320, 0.0028
321, 0.0024
322, 0.0026
323, 0.0021
324, 0.0022
325, 0.0028
326, 0.0017
327, 0.0017
328, 0.0022
329, 0.0018
330, 0.0029
331, 0.0022
332, 0.0015
333, 0.0019
334, 0.0026
335, 0.0020
336, 0.0022
337, 0.0014
338, 0.0029
339, 0.0025
340, 0.0024
341, 0.0025
342, 0.0022
343, 0.0021
344, 0.0024
345, 0.0023
346, 0.0022
347, 0.0026
348, 0.0027
349, 0.0016
350, 0.0015
351, 0.0022
352, 0.0027
353, 0.0027
354, 0.0028
355, 0.0020
356, 0.0025
357, 0.0017
358, 0.0020
359, 0.0024
360, 0.0020
361, 0.0016
362, 0.0021
363, 0.0023
364, 0.0019
365, 0.0018
366, 0.0019
367, 0.0019
368, 0.0024
369, 0.0023
370, 0.0026
371, 0.0021
372, 0.0023
373, 0.0019
374, 0.0023
375, 0.0016
376, 0.0024
377, 0.0027
378, 0.0019
379, 0.0024
380, 0.0025
381, 0.0024
382, 0.0020
383, 0.0020
384, 0.0025
385, 0.0021
386, 0.0017
387, 0.0016
388, 0.0029
389, 0.0028
390, 0.0023
391, 0.0029
392, 0.0023
393, 0.0024
394, 0.0021
395, 0.0027
396, 0.0024
397, 0.0027
398, 0.0030
399, 0.0022
400, 0.0028
##END=
